Sr Co O 
 1.0000000000000000
     4.7591635209148215   -2.7720302657739588   -0.7078648739100690
     4.6850546064445000    8.1846000980493994   -0.7173042922790055
    -1.4880164703803347    0.0033162217759975    9.4352925187194359
 Sr  Co  O  
   8   8  21
Selective dynamics
Direct
  0.4436985524013232  0.1186843952863390  0.8667755915037961   T   T   T
  0.0860271321136756  0.3479055816123678  0.1608503837424447   T   T   T
  0.1992844568752245  0.0710496737673543  0.3970060777872756   T   T   T
  0.3026713135768805  0.4388717778260877  0.5981931532269917   T   T   T
  0.9257308505023716  0.6569606128257102  0.8434828075507594   T   T   T
  0.5674272601832505  0.8696838474589299  0.1486664179446107   T   T   T
  0.7053021488295904  0.5691768564296862  0.3958520978576497   T   T   T
  0.8027018310554336  0.9317233978472035  0.6035109255052425   T   T   T
  0.0069397036417279  0.0078742163157967 -0.0013548992281612   T   T   T
  0.7522103923766901  0.2534403655122704  0.5027567660571209   T   T   T
  0.6122403205147440  0.2036216068673209  0.2320859081717483   T   T   T
  0.8899561102374752  0.2874481062076846  0.7592609756530798   T   T   T
  0.4952528730463769  0.5178990669685020  0.0197072147945546   T   T   T
  0.2513934019059110  0.7514849886951175  0.4952580096542182   T   T   T
  0.0952559087323514  0.6964467153313421  0.2305658594493722   T   T   T
  0.3957670159389777  0.7874225840700123  0.7654594648068189   T   T   T
  0.9078839462590648  0.3062594935913069  0.3642993487421654   T   T   T
  0.5766725304192705  0.2011577429799965  0.6399543689748567   T   T   T
  0.4656402542023662  0.3162660115455442  0.3752209914841328   T   T   T
  0.0552178177003669  0.1903035184667550  0.6210577152375811   T   T   T
  0.8374089803813594  0.4321376654593320  0.6474803030956421   T   T   T
  0.6797354097344139  0.0800625081632592  0.3795205553317132   T   T   T
  0.2977085349716237  0.0940970642718898  0.1453176320041628   T   T   T
  0.5411892855571729  0.3420886646694710  0.0797009680817217   T   T   T
  0.9803006562467336  0.1923800677904063  0.9065277213207906   T   T   T
  0.8050739427231592  0.0836416662583703  0.1221298338954677   T   T   T
  0.3994909357014547  0.7971259206255588  0.3462074751086088   T   T   T
  0.0913903678541010  0.7013811741846109  0.6326632707864248   T   T   T
  0.9620064687388962  0.8173438673882562  0.3727428624164701   T   T   T
  0.5466454830180285  0.6942592537271141  0.6164000366011143   T   T   T
  0.3263851677096318  0.9249783437800286  0.6297577404429694   T   T   T
  0.1807566898812803  0.5680010114703264  0.3819698470777463   T   T   T
  0.7730662106419519  0.6284557757526744  0.1381533869055497   T   T   T
  0.7179911180193841  0.8920340782060134  0.8731239646954028   T   T   T
  0.4488249520596070  0.6005494543877806  0.8536359941651788   T   T   T
  0.2210042271191597  0.8878217267625854  0.9076192076352526   T   T   T
  0.2112475945203539  0.5884611563953281  0.0804398153753579   T   T   T
