Sr Co O 
 1.0000000000000000
    -4.8138323278635236    2.6978568053835059    0.7832946151283831
    -4.8742135543904359   -8.1934207326302460    0.7882456966242668
     3.2033729361943362    2.7336827128233128    8.7594787046542422
 Sr  Co  O  
   8   8  20
Selective dynamics
Direct
 -0.0081506572581924  0.3132388847576557  0.8438890575808752   T   T   T
  0.9719439960843884  0.7211640258410753  0.1624877643372150   T   T   T
 -0.0143644547701282  0.1184410904069122  0.3910361725130556   T   T   T
  1.0248783854874330  0.8747795764541089  0.6026149558052594   T   T   T
  0.5039730178521452  0.7728884442094904  0.8875053986732326   T   T   T
  0.4974429859403351  0.2128927704132433  0.1625005790186606   T   T   T
  0.4868122587004479  0.6484996669136828  0.3886538371958674   T   T   T
  0.4883787719705056  0.3569856290808548  0.5876788251201255   T   T   T
 -0.0302383038838103 -0.0259464214797158  0.0042721883274096   T   T   T
  0.5104389245059741  0.0034337441286547  0.5164449422817260   T   T   T
  0.4737593331205564  0.9175507661988619  0.2453113319148056   T   T   T
  0.5594590375086506  0.0772984723085478  0.7742262104633199   T   T   T
  0.4644534779947693  0.5026972409780481  0.0205611086408366   T   T   T
 -0.0029957995879359  0.4951993261113020  0.4834844682942976   T   T   T
 -0.0230341767329693  0.4063744469149517  0.2188606474504316   T   T   T
  1.0446589522831400  0.6003771736325173  0.7654302868957688   T   T   T
  0.2576478157069295  0.8974135158611676  0.3905238669881435   T   T   T
  0.7644217939299346  0.1202402388997999  0.6279164766135134   T   T   T
  0.7118937911949711  0.8756854134050868  0.3723146438931975   T   T   T
  0.2985016628414703  0.1306295875996140  0.6725173512249802   T   T   T
  0.5393733138543529  0.8742227527614098  0.6373004890055584   T   T   T
  0.4963016921470524  0.1141076276839136  0.3857645355605093   T   T   T
  0.7274107116734086  0.9481130094295779  0.1249853869676775   T   T   T
  0.4347017793691406  0.7084104678954327  0.1311256826964108   T   T   T
  0.7735663294147669  0.0990026304715138  0.9264486779937826   T   T   T
  0.2317358266385310  0.9887375689924486  0.1254273851182840   T   T   T
  0.7328425091525845  0.3982006093897972  0.3644821034414303   T   T   T
  0.2398994373049190  0.6039909720789249  0.6071217353865180   T   T   T
  0.1860244289164703  0.3371575081874818  0.3377742479423522   T   T   T
 -0.0501621907406237  0.4087087037170003  0.6258396386212473   T   T   T
  1.0040177195424260  0.6184240845285410  0.3690547052036578   T   T   T
  0.2218140504644789  0.3912322518594575  0.0812340722751698   T   T   T
  0.8368426175834690  0.5919262503099271  0.8979094799952883   T   T   T
  1.0600548945366914  0.8136059152509889  0.8385666287285803   T   T   T
  0.3371758187651429  0.4999391126957006  0.8440570086720224   T   T   T
  0.7323699701776654  0.4312268659036335  0.0933778151928315   T   T   T
