Sr Co O 
 1.0000000000000000
    -4.6695221737156425    2.8403525657678999    0.7162801819127376
    -4.5586626846857277   -8.3202524743656703    0.8126914773835278
     3.0143088647574534    2.6393283201582416    8.7965501888058206
 Sr  Co  O  
   8   8  22
Selective dynamics
Direct
 -0.0145292982899453  0.2825360288458510  0.8514547441831459   T   T   T
  1.0145694729027970  0.7014093299557043  0.1401265905592132   T   T   T
  0.0202838834357635  0.1100106177824986  0.3758335957148274   T   T   T
  0.9894496727861225  0.8839082893247073  0.6242647655961564   T   T   T
  0.4943882456825329  0.7909816821356348  0.8518913519718664   T   T   T
  0.5035725889378737  0.2023890865672730  0.1196975418275823   T   T   T
  0.4867580007770181  0.6454772517045413  0.4105735860081321   T   T   T
  0.4827004014837222  0.3674170816674557  0.6227442473802212   T   T   T
  0.0039869772591964 -0.0061856752990971 -0.0028394170573561   T   T   T
  0.5046718944926447  0.0013350596387550  0.4936845936106433   T   T   T
  0.5254563357330599  0.9161020820650284  0.2301256693412157   T   T   T
  0.4806605368527724  0.0901792397685691  0.7626055687851840   T   T   T
  0.5067027266527191  0.4886712391371102 -0.0071488193403227   T   T   T
 -0.0008767237355413  0.5030509277001594  0.5099867203815637   T   T   T
  0.0284948608777958  0.4002586459643235  0.2231973489126014   T   T   T
  0.9858241350747582  0.5999081020151152  0.7764262929846648   T   T   T
  0.2806332396500430  0.8736631838821881  0.3564133410646690   T   T   T
  0.7249073795243712  0.1189435016353072  0.6322897595694918   T   T   T
  0.7339037035034985  0.8768615486374494  0.3751268604786353   T   T   T
  0.2659115604241130  0.1134326146668424  0.6105374896822990   T   T   T
  0.4833863568576778  0.8909345642061749  0.6282217236379856   T   T   T
  0.5327602074735585  0.1277267053612497  0.3747690491018401   T   T   T
  0.7959943821333967  0.9266305908464959  0.1223812412749752   T   T   T
  0.2078928733295191  0.0579766424067753  0.8682857697894728   T   T   T
  0.4656667330600476  0.2961096459175750  0.8560152681546984   T   T   T
  0.7031098597416425  0.0585773775340278  0.8911349769849493   T   T   T
  0.3046746640574237  0.9261048937840947  0.0963873744819777   T   T   T
  0.2258009469759382  0.6247639638504433  0.6355129505797964   T   T   T
  0.2133068462538014  0.3801450834158355  0.3870463362420123   T   T   T
  0.7523302118386294  0.6097251494436497  0.6220477893608235   T   T   T
 -0.0165477504893002  0.3988112474544339  0.6476308566285232   T   T   T
  0.9521182768901600  0.5852802595958626  0.3630319930624161   T   T   T
  0.3264234932987119  0.4910946791458490  0.1522429596330461   T   T   T
  0.7240274930582389  0.5796777013026497  0.9035262615654804   T   T   T
  0.0250851210981269  0.1947177631288319  0.1460622513047687   T   T   T
  0.9804193619529479  0.8033434950564076  0.8502235102120207   T   T   T
  0.2240538952054114  0.5719900201026131  0.9049540271923590   T   T   T
  0.8010274382363584  0.4250400383420787  0.0955334811203234   T   T   T
