Sr Co O 
 1.0000000000000000
     4.7254483065169408   -2.6900236633200998   -0.7241230504293934
     4.9381732760256352    8.3766703387793857   -0.5530669783828064
    -1.4354030188688804    0.1458729053710107    9.4608156006395205
 Sr  Co  O  
   8   8  20
Selective dynamics
Direct
  0.4451836752152583  0.1219076157376690  0.8625924561295187   T   T   T
  0.0696483363490517  0.3645580768700380  0.1494121201057393   T   T   T
  0.2140114425594953  0.0346209591355041  0.3561484966433980   T   T   T
  0.3174470734184267  0.4693457106887123  0.6483015555962129   T   T   T
  0.9168772378169509  0.6628896225648642  0.8753979791251917   T   T   T
  0.5376269431887638  0.8337540314315003  0.1078018556522334   T   T   T
  0.6999047753746189  0.5548695848280468  0.3893321788488162   T   T   T
  0.7913041686229887  0.9119616629298350  0.6163476651064613   T   T   T
  0.0034755332290455 -0.0121857707451492  0.0004122003745750   T   T   T
  0.7970459704390431  0.2262727234520916  0.5051090069290722   T   T   T
  0.6470576227711912  0.1855868920421761  0.2228191360553292   T   T   T
  0.8847094032224271  0.3227649588384480  0.7795631151152672   T   T   T
  0.5005618969047861  0.4951185333827657  0.0133917273736295   T   T   T
  0.2678053926312335  0.7374658162443447  0.4932386734529708   T   T   T
  0.1189314776715434  0.6901089984403953  0.2307744593442636   T   T   T
  0.3672737288494962  0.7961122842046591  0.7558804477545356   T   T   T
  0.9629553510337306  0.2669597561566144  0.3717835395444916   T   T   T
  0.6947619501273592  0.1693569261333135  0.6634189801264281   T   T   T
 -0.1825945536049679  0.4060442835335468  0.5966486293741537   T   T   T
  0.7028200726132680  0.0629653488994005  0.3854806846346995   T   T   T
  0.3432452036254627  0.0902293555252473  0.1227236434547892   T   T   T
  0.2201094583459505  0.3486999226462397  0.8568700810440039   T   T   T
  0.5526709307225319  0.3621791286503579  0.1737033992486435   T   T   T
  0.7326243393010088  0.4168006586362468  0.9099911971996217   T   T   T
  0.8332863870566805  0.1321330260047822  0.0715057824185745   T   T   T
  0.4234598798003473  0.7849775208435195  0.3526752421132214   T   T   T
  0.0754333412879579  0.6962737480920199  0.6198833592451171   T   T   T
  0.5588104209494937  0.6897898510728230  0.6386677392097642   T   T   T
  0.2918326230612868  0.9201530733541734  0.5969027197868679   T   T   T
  0.2001567809156611  0.5628633798575033  0.3806152191156835   T   T   T
  0.7954781909185026  0.6179464501006642  0.1608208857510305   T   T   T
  0.6708555068156099  0.8960723899899490  0.8689743435496478   T   T   T
  0.0252771231404021  0.8539812295112709  0.1418776479890773   T   T   T
  0.4160151345512095  0.6520465002859581  0.8776031973500128   T   T   T
  0.1588179235566129  0.9125866926215311  0.8593129190260175   T   T   T
  0.2566196805457632  0.5832889990115735  0.0913172585201239   T   T   T
