Sr Co O 
 1.0000000000000000
     0.0939116565655266    5.6089806764904830    0.0074240591373452
    -9.3084383957824048   -0.1478608915314817    1.4369919072249873
    -1.4810872421629830    0.0129720661744318    9.6152923374843695
 Sr  Co  O  
   8   8  20
Selective dynamics
Direct
  0.0120727347912095  0.7045056114239804  0.8526293957464371   T   T   T
 -0.0166539699617533  0.2852252422244443  0.1277648109682352   T   T   T
 -0.0207667205793817  0.9107939273339243  0.3821571249982053   T   T   T
  0.0329897016911214  0.1002985101611175  0.6531435608414135   T   T   T
  0.5056574153220632  0.1929856905946488  0.8903174129808855   T   T   T
  0.4934953162999366  0.7839873000225858  0.1165736713231990   T   T   T
  0.4639105641250204  0.3812686552563438  0.3554588424960493   T   T   T
  0.5039030044814429  0.6437780702774155  0.6252604807005008   T   T   T
  0.0092555278423658 -0.0013279898375873  0.0032043961065960   T   T   T
  0.0235896585505685  0.5506068810379326  0.4855360757952630   T   T   T
 -0.0231516794369513  0.5965530048265204  0.2224484970098983   T   T   T
  0.0197897191373693  0.3998587000861209  0.7731137029762276   T   T   T
  0.5040054620787781  0.4970206405898523 -0.0126164203507788   T   T   T
  0.5077541508690171  0.0274852605525239  0.5080682858037023   T   T   T
  0.4836163331039532  0.0985188228497554  0.2317902026539824   T   T   T
  0.5226579103077591  0.9054229629687416  0.7714709979287623   T   T   T
 -0.0704701944470009  0.5872758546621483  0.6480852739742452   T   T   T
  0.2386274545532238  0.6238251743493058  0.3363174784688717   T   T   T
  0.1738792907741620  0.3856036640878839  0.5900718913106082   T   T   T
  0.7922089998432518  0.6556735651189063  0.3624507070895588   T   T   T
  0.0438963900565133  0.1988266788948654  0.8667320363919729   T   T   T
  0.1785544937475379  0.5581182460981552  0.0977007726669409   T   T   T
  0.7929708895085414  0.4160433769440030  0.9023631069818584   T   T   T
  0.3131724958036814  0.4618739041023534  0.8349592163032156   T   T   T
  0.7089015924404113  0.5361872959201018  0.1491598603729615   T   T   T
  0.5283930484877556  0.1176583895496976  0.6643429726511729   T   T   T
  0.7197942468612191  0.1422281175503562  0.3622690383063276   T   T   T
  0.2871183265041642  0.8816446418699148  0.6256829742220251   T   T   T
  0.7413639166735203  0.8959362148122901  0.6131231790494290   T   T   T
  0.2663395653916073  0.1242738864273356  0.3818265843261966   T   T   T
  0.4355098482873012  0.3036010664869018  0.1151133777636460   T   T   T
  0.5453161414667205  0.6940789666084567  0.8651337955910475   T   T   T
  0.7273369909886062  0.0275027788722529  0.1395067475544499   T   T   T
  0.2699969133087677  0.9246750797836168  0.8997747561116983   T   T   T
  0.7827011443194017  0.9237973036542846  0.9022825402467045   T   T   T
  0.2282635421758463  0.0031946173614835  0.1534823256309796   T   T   T
