Sr Co O 
 1.0000000000000000
     4.7973506025635251   -2.7844922047569631   -0.6183460723310517
     4.8029296314989605    8.3472626392225688   -0.5612790661134947
    -1.2410128811425123    0.0515573235797094    9.4642494903497330
 Sr  Co  O  
   8   8  20
Selective dynamics
Direct
  0.3939115756944780  0.1123908042462176  0.8502722026880671   T   T   T
  0.0668756560507988  0.3703484181237323  0.1550713295593086   T   T   T
  0.2001336493165097  0.0309385748059174  0.3613397418168869   T   T   T
  0.3260352738828177  0.4570619941934827  0.6283557490949950   T   T   T
  0.9180051249660557  0.6421084069518732  0.8454650368303560   T   T   T
  0.5122110857908302  0.8355426554754757  0.0943185876495448   T   T   T
  0.6978751754231706  0.5868293918064825  0.3967818104330255   T   T   T
  0.8170044531320244  0.9022427231243840  0.6118912000080634   T   T   T
 -0.0367876245138619 -0.0197045428884672 -0.0269546854129920   T   T   T
  0.7827881722640379  0.2549723703210972  0.5134981981103820   T   T   T
  0.5810352431261929  0.2297238989289253  0.2329537612208896   T   T   T
  0.8950741779311872  0.2975287500134166  0.8075099126179567   T   T   T
  0.4727530734949407  0.4888327911721693 -0.0112037720496598   T   T   T
  0.2517467198247852  0.7443290587442069  0.4857232832313235   T   T   T
  0.1052857396938371  0.7109593992271366  0.2256734832593395   T   T   T
  0.3791454847809321  0.7870094227354736  0.7496074659863121   T   T   T
  0.4547481658760686  0.2623896162012845  0.4149660079649074   T   T   T
 -0.0565808647721751  0.1538094364148833  0.6594032176449409   T   T   T
  0.8124969301778124  0.4156444028093065  0.6472773839528472   T   T   T
  0.9092117413169754  0.2231718366068193  0.3415078202584735   T   T   T
  0.3922793527677542  0.0882497484934310  0.1271958126585510   T   T   T
  0.2466839560235039  0.3578993009457299  0.8587220656335003   T   T   T
  0.5789111002383652  0.4082454741458592  0.1697452113663983   T   T   T
  0.8936728253239803  0.1635136750117505  0.9457481561900312   T   T   T
  0.7721767792457436  0.4268203780346729  0.9295124159107149   T   T   T
  0.4269162663839965  0.8034811916792091  0.3494670423821551   T   T   T
  0.0929517329257874  0.6863464323977766  0.6273521056694545   T   T   T
  0.9531874560333362  0.8015461348580462  0.3700270288744905   T   T   T
  0.5430872999101873  0.6862716324287673  0.6115285276208249   T   T   T
  0.3150568218586955  0.9202495931236653  0.6068398277761833   T   T   T
  0.1711880649345878  0.5686213296930188  0.3615505997317551   T   T   T
  0.6636770037977688  0.8956155250872803  0.8534778336754170   T   T   T
 -0.0098649338942500  0.8694266189513410  0.1224114015740648   T   T   T
  0.4683893203494313  0.6413139578564414  0.8778449984834660   T   T   T
  0.1781341319376361  0.8879374426315645  0.8653019812241839   T   T   T
  0.2215837611589333  0.6073321363742604  0.0838170486296787   T   T   T
