Sr Co O 
 1.0000000000000000
     0.0463822694759436    5.5318641930809500   -0.0342363172295173
    -9.4096801390100033   -0.0256772091531864    1.6048838233997658
    -1.6669370806005575   -0.0960951290556958    9.5895549490928094
 Sr  Co  O  
   8   8  20
Selective dynamics
Direct
  0.0213639366719088  0.7402380850726989  0.8402327842283417   T   T   T
 -0.0266591179010448  0.2653661301691639  0.1382652522506645   T   T   T
 -0.0030869844425467  0.8669039255873675  0.3912758315259918   T   T   T
  0.0272910953459687  0.1224011547930226  0.6165126002720159   T   T   T
  0.5084518114167436  0.1922349588553249  0.8528138766730875   T   T   T
  0.4859552322823780  0.7881778789693159  0.1117171389950386   T   T   T
  0.4857014553981874  0.3839703720658032  0.4005493586604879   T   T   T
  0.5181888408152537  0.6368508756994383  0.6324573556671137   T   T   T
 -0.0013278096121155 -0.0106785663938443 -0.0037022950224853   T   T   T
  0.0202137164247960  0.5134754468203808  0.5132059891710270   T   T   T
 -0.0426099740561741  0.5829561569363984  0.2462002660663977   T   T   T
  0.0307077982398975  0.4104840887595230  0.7946147876164945   T   T   T
  0.5307546416459522  0.5124133567816427 -0.0155751775165875   T   T   T
  0.5064161725354932  0.0213517682071379  0.4831221769537642   T   T   T
  0.4732171644615262  0.0748056427810794  0.2227552223321533   T   T   T
  0.5252525148404878  0.9227968797297038  0.7479317960427249   T   T   T
 -0.0075124056791367  0.3895522969937601  0.3950128971794305   T   T   T
 -0.0013770135129997  0.6040142422771323  0.6561822504096627   T   T   T
  0.2306490834648239  0.6393572000915915  0.3424228864262268   T   T   T
  0.2578102904028385  0.3962467842246992  0.6437347506591976   T   T   T
  0.7485984663277563  0.6213532217383565  0.4108724089789599   T   T   T
 -0.0333163817349236  0.7566825258300467  0.0955239823439636   T   T   T
  0.0427836867682223  0.2117026778824928  0.8854334011317837   T   T   T
  0.7163913123727264  0.4209705177386626  0.8770556462267238   T   T   T
  0.2155188297046413  0.4683064446259543  0.9583829417921584   T   T   T
  0.6872058865642718  0.4984376141224492  0.1583401896018182   T   T   T
  0.5198541699597578  0.1353327084523363  0.6173738137295918   T   T   T
  0.7236189696156994  0.1109703521142270  0.3381741077645808   T   T   T
  0.2818342758700492  0.8912543735360282  0.6083428127747353   T   T   T
  0.7414734029302917  0.8941681928569237  0.6019860625924348   T   T   T
  0.2749367326858055  0.1337955821679247  0.3473996115696870   T   T   T
  0.5389554586896098  0.7146268305929466  0.8638126334481921   T   T   T
  0.6873355190236807  0.0359218756605433  0.1045417787117225   T   T   T
  0.2875437013691546  0.9526089674401376  0.8730814518378601   T   T   T
  0.7927964151553518  0.9774782304943148  0.8435779302237076   T   T   T
  0.2080691430178423  0.0034712002466044  0.1530713223479633   T   T   T
