Sr Co O 
 1.0000000000000000
     0.0534891816402428    5.5895079471400324    0.0606862150154309
     9.6117684153215102    0.1059105705305440   -1.3553645900644919
    -3.4326858451821565   -2.9699550703187430   -8.7372356411296508
 Sr  Co  O  
   8   8  20
Selective dynamics
Direct
  0.5668178721210222  0.8534992920702021  0.1330723747643509   T   T   T
  0.9357658277267105  0.6617998829029507  0.8673872586700505   T   T   T
  0.8013886059112614  0.9144033724220849  0.6414578007557910   T   T   T
  0.6760852075671177  0.5864481255563136  0.3706143878174422   T   T   T
  0.1021636273571068  0.3374794515118540  0.1814362149456515   T   T   T
  0.4431386867810548  0.1265460941672567  0.9174245375440215   T   T   T
  0.2995189475541149  0.4580384967127034  0.5995644306193145   T   T   T
  0.2109863612415804  0.0371181924485560  0.3839940383769196   T   T   T
  0.0088839472147006 -0.0003010342558462  0.0201117435607917   T   T   T
  0.7841374554888666  0.2863529205005224  0.5364191551836701   T   T   T
  0.8058662914957495  0.2793016380660358  0.7956864921275854   T   T   T
  0.6541988866759324  0.2157436291045483  0.2622861232062678   T   T   T
  0.5210704939559824  0.4851574176265064  0.0167320705863915   T   T   T
  0.2265877657989085  0.7513832776389624  0.4893353815269189   T   T   T
  0.3675961056508666  0.8050559687649546  0.7554055325060499   T   T   T
  0.1017448311002594  0.7010796115947457  0.2159703999970139   T   T   T
  0.9382778496825647  0.4144164971227815  0.7148889868548477   T   T   T
 -0.0167335343902611  0.2756273092732279  0.4124522732620500   T   T   T
  0.5135627481901631  0.3472998209032087  0.3982640969689645   T   T   T
  0.6567364118574573  0.1473980006679073  0.5961517865431861   T   T   T
  0.9759246417572249  0.1651891931859135  0.9202335316719490   T   T   T
  0.6173230296430927  0.3559656438446924  0.1389144583166063   T   T   T
  0.3544622281161270  0.1069354207572741  0.1769312963638779   T   T   T
  0.8164786030069554  0.0848134303928903  0.1566039335736577   T   T   T
  0.5156972377114115  0.3674776316808033  0.8372407564634476   T   T   T
  0.2763910614099543  0.9365940870570704  0.6156849930459382   T   T   T
  0.1473845159207332  0.5743446168224150  0.3488028433599045   T   T   T
  0.5264019799547058  0.6915783744400742  0.6244523099322220   T   T   T
  0.9384281783906004  0.8069825579001156  0.3527011462706951   T   T   T
  0.4087172059561545  0.7963214863677460  0.3691507794146816   T   T   T
  0.0662807680193396  0.6918442511516136  0.6171064400764834   T   T   T
  0.0960327292592390  0.8491935294445725  0.1219579077126367   T   T   T
  0.6774445018497017  0.8895412636669371  0.8786354440409044   T   T   T
  0.7789039761119545  0.6233428911602158  0.0692759296388732   T   T   T
  0.2822509467717602  0.5836489433892604  0.0843629314373301   T   T   T
  0.1977341771132378  0.8870287031263666  0.8845903166543336   T   T   T
