Sr Co O 
 1.0000000000000000
     0.0000000000000001    5.5535121921877275   -0.0000000000000000
     9.2848332278400676    0.0000000000000001   -1.5124109604470513
    -3.0706853230968814   -2.7767560960938638   -8.9121788190441453
 Sr  Co  O  
   8   8  20
Selective dynamics
Direct
  0.5795747026733662  0.8355232132976301  0.1591494053467322   T   T   T
  0.9230327843047234  0.6275338882027385  0.8460655686094498   T   T   T
  0.8000195736348890  0.9455003746672989  0.6000391472697808   T   T   T
  0.7027376899991644  0.5656271710917727  0.4054753799983287   T   T   T
  0.0544750128970528  0.3352495685051896  0.1089500257941055   T   T   T
  0.4131956301468060  0.1553761639648190  0.8263912602936142   T   T   T
  0.3098590577779179  0.4297034107564532  0.6197181155558373   T   T   T
  0.2031240099984737  0.0821405768239897  0.4062480199969482   T   T   T
 -0.0159515659544349 -0.0184753635118725 -0.0319031319088704   T   T   T
  0.7458720764212997  0.2583381148395884  0.4917441528426020   T   T   T
  0.8775416653975213  0.2953693361162004  0.7550833307950459   T   T   T
  0.6208618313927527  0.2115623473093462  0.2417236627855054   T   T   T
  0.5039194373158106  0.4754952606817651  0.0078388746316210   T   T   T
  0.2571812026631496  0.7598304347808144  0.5143624053263003   T   T   T
  0.3901895242732175  0.7975714580536926  0.7803790485464367   T   T   T
  0.1199785084684921  0.6825826847193984  0.2399570169369844   T   T   T
  0.8112543182512155  0.4295337306358103  0.6225086365024342   T   T   T
  0.6781035741507785  0.0696764967478950  0.3562071483015570   T   T   T
  0.0370925697935401  0.1968303225141121  0.6172794538179019   T   T   T
  0.4451790798691433  0.3236397374037278  0.3702316724459396   T   T   T
  0.9250525925767941  0.3236397374037278  0.3702316724459396   T   T   T
  0.5801868840243608  0.1968303225141121  0.6172794538179019   T   T   T
  0.9297065292058556  0.1312037695004550  0.8594130584117148   T   T   T
  0.5402872297805860  0.2833932000147340  0.0805744595611719   T   T   T
  0.1872382509113548  0.4063215537445202  0.8636515714620875   T   T   T
  0.6764133205507298  0.4063215537445202  0.8636515714620875   T   T   T
  0.3189802546376164  0.9423066086366756  0.6379605092752343   T   T   T
  0.5466773999777810  0.6960715883753911  0.6399874226982383   T   T   T
  0.9603982232537069  0.7836899327216879  0.3705953173279666   T   T   T
  0.4101970940742587  0.7836899327216879  0.3705953173279666   T   T   T
  0.0933100227204558  0.6960715883753911  0.6399874226982383   T   T   T
  0.0746613975998938  1.0695896567017533  0.1493227951997877   T   T   T
  0.6967199456488069  0.8530414811651902  0.9211261153458488   T   T   T
  0.8193343446379878  0.5915892646445845  0.1335239439877541   T   T   T
  0.3141895993497664  0.5915892646445845  0.1335239439877541   T   T   T
  0.2244061696970393  0.8530414811651902  0.9211261153458488   T   T   T
