Sr Co O 
 1.0000000000000000
     0.0256289452020790    5.4304809116106192    0.0279224826331078
     9.8566161544405251    0.0377466532456440   -1.1320845073138694
    -3.8156690616835820   -2.7778943742537767   -8.8053489083402496
 Sr  Co  O  
   8   8  20
Selective dynamics
Direct
  0.5751853960122172  0.8616724761453047  0.1030337900164533   T   T   T
  0.9515363358418630  0.6701225771798824  0.8338398334578545   T   T   T
  0.8333496116589212  0.9433571159553378  0.6358604690051016   T   T   T
  0.7151867357328126  0.5351736296158401  0.3962654169157439   T   T   T
  0.1067942514003799  0.3255338781236202  0.1777809613003561   T   T   T
  0.4766227947731089  0.1405845202162679  0.9133085409731416   T   T   T
  0.3474516173240598  0.4429551963765967  0.6362876168595351   T   T   T
  0.2080022043204476  0.0670452162345277  0.3597451913937529   T   T   T
  0.0194907276076812  0.0061218429709158 -0.0057557050195756   T   T   T
  0.7880334256358933  0.2475323909275460  0.5283275697818876   T   T   T
  0.8755169322793455  0.3243579213773532  0.8267405813570387   T   T   T
  0.6479251726502118  0.2007767176143493  0.2608347514735269   T   T   T
  0.4868802125110476  0.4828346975309199  0.0345675899133092   T   T   T
  0.2568647922592184  0.7374020550180633  0.4822641995689686   T   T   T
  0.4058693235346532  0.7859821802195351  0.7545339039341069   T   T   T
  0.0358052871537133  0.6463026992569902  0.1565276879153008   T   T   T
  0.7140972044292379  0.0680001883386211  0.3791435586186782   T   T   T
 -0.1018535254087297  0.4160040376382708  0.6868826657213869   T   T   T
  0.4743952216230951  0.3091748126254756  0.3969579651978727   T   T   T
  0.9595168487842825  0.3042674946616357  0.4087454779092847   T   T   T
  0.6639179526399807  0.1838332908623977  0.6528685354382712   T   T   T
  0.9962472281318894  0.1849983732659673  0.9081223678027893   T   T   T
  0.5897135412224701  0.3452879241572095  0.1517250136404507   T   T   T
  0.3365747373048093  0.0869699184394460  0.1340264725715600   T   T   T
  0.8417148500964143  0.0916261562937841  0.1360840935363542   T   T   T
  0.5408284346143437  0.3745857784268904  0.8677839728874748   T   T   T
  0.2363863716652863  0.9225564377581266  0.5288339579814995   T   T   T
  0.2131073493925627  0.5836573702741739  0.3187063247595379   T   T   T
  0.5805533347241979  0.7001550384254454  0.6093949396315964   T   T   T
  0.0992385135140189  0.6756211803684191  0.6091002011245673   T   T   T
  0.4715062562308588  0.6601377382995605  0.8640843713034099   T   T   T
  0.0817998535984675  0.8081099119121795  0.1144355115932646   T   T   T
  0.7015221089830983  0.9164198398270030  0.8551482932860527   T   T   T
  0.6902901158196640  0.6380920400792114  0.1778881601418216   T   T   T
  0.1034913760729341  0.4865583482190008 -0.0010590594397972   T   T   T
  0.1957371528311588  0.9074888616572305  0.8515647325523480   T   T   T
