Sr Co O 
 1.0000000000000000
    -4.8523215703651692    2.7418393439219035    0.6072496284668152
    -4.8404055302608358   -8.1937470330127962    0.6634522465524241
     3.5500012615507850    2.6789923634360155    8.9829318154649158
 Sr  Co  O  
   8   8  20
Selective dynamics
Direct
 -0.0138320847001260  0.2960277506107811  0.8585034148930448   T   T   T
  1.0109802440755546  0.6882251223446471  0.1212945116708773   T   T   T
 -0.0737705281897135  0.1359442438828383  0.4198505047585033   T   T   T
  0.9805862680412025  0.8681190119650125  0.6302805185596074   T   T   T
  0.5116948570731582  0.7856226708483327  0.8744863911292834   T   T   T
  0.5302914544206137  0.2211960169658424  0.1041132948677182   T   T   T
  0.5345841870355779  0.6071566853078908  0.3689708905991734   T   T   T
  0.4827320958867772  0.4055445441863254  0.6728784661014519   T   T   T
  0.0090397583315029  0.0090943737116931 -0.0216884457157604   T   T   T
  0.4476508105720198  0.0060005226110225  0.5009033483535142   T   T   T
  0.5070080470989620  0.8966829954774116  0.2397053791472182   T   T   T
  0.4809657568380093  0.0942951505677709  0.7668164748806935   T   T   T
  0.4970522226809956  0.5048035992777943  0.0063997273234472   T   T   T
 -0.0050588317982150  0.5099430088858308  0.5162480729064487   T   T   T
  0.0151249166906736  0.4076468310691144  0.2313823424286732   T   T   T
  0.9886736143600534  0.5992852779588348  0.7789072709780875   T   T   T
  0.2272924482751884  0.9301669869744009  0.3449332833449240   T   T   T
  0.6736357727791913  0.1298605514609501  0.6266999955226830   T   T   T
  0.6835521781776657  0.8753389169434811  0.4117373030550252   T   T   T
  0.2223919005270382  0.1006784273675704  0.6269616156762977   T   T   T
  0.6778514381205935  0.0124353679808723  0.1790431971888252   T   T   T
  0.2755353581537605  0.0191904301261828  0.8649932539631258   T   T   T
  0.4702848715730545  0.7141755547231071  0.1056935581048426   T   T   T
  0.5184228526027620  0.3003352934208307  0.8879416399776907   T   T   T
  0.7443460088698625  0.0166434080670633  0.8440827334145333   T   T   T
  0.8065844077896023  0.3702612191224642  0.3604570285939865   T   T   T
  0.2187987246662742  0.6361601230548282  0.6615851205914640   T   T   T
  0.7486011807219716  0.6482900851291473  0.6453319344838161   T   T   T
 -0.0189759058297386  0.3955768785040267  0.6333159515718700   T   T   T
  1.0626697244235814  0.5996596888523940  0.3880475354059929   T   T   T
  0.2668103643430840  0.4554528155345093  0.1500476530561079   T   T   T
  0.7493846923037203  0.5499179885244651  0.8789043120907110   T   T   T
  0.0371737962496254  0.1968279384890328  0.1119611072071579   T   T   T
  1.0124679464671684  0.8057524893499606  0.9303143616160431   T   T   T
  0.2280416164596030  0.5233330230101922  0.8848876965407484   T   T   T
  0.7464079656375318  0.4833549717135733  0.1380084445132725   T   T   T
