Sr Co O 
 1.0000000000000000
     4.7666910210026021   -2.7606432249079504   -0.7011894211290138
     4.7352492466951110    8.2111016071896668   -0.7401959947062110
    -1.4942622235621850   -0.0340660254801745    9.4602472735823895
 Sr  Co  O  
   8   8  23
Selective dynamics
Direct
  0.4310205947044996  0.1353106248557433  0.8459842183413708   T   T   T
  0.0936239106652624  0.3831541790640171  0.1388798720060729   T   T   T
  0.2148101547358113  0.0688514998885185  0.3982296740604371   T   T   T
  0.3120260212288291  0.4296728332333875  0.6133932414550665   T   T   T
  0.9397485333127646  0.6274355929669263  0.8548263224214948   T   T   T
  0.5748993756001481  0.8631029859314701  0.1420301315124992   T   T   T
  0.7114666082497074  0.5742615556773989  0.3866835781102593   T   T   T
  0.8140691831752644  0.9312832576285156  0.6107677512740636   T   T   T
  0.0128872622017922 -0.0236385646810528 -0.0210080664663504   T   T   T
  0.7572235433671349  0.2495598120912133  0.4987680760378745   T   T   T
  0.6159914406914919  0.2273174247251656  0.2343902766581938   T   T   T
  0.8992902192051347  0.2822551952567079  0.7699273951771541   T   T   T
  0.5160661539400581  0.5030255693821283 -0.0018810624874512   T   T   T
  0.2643438303655382  0.7511826521195266  0.4990029674910595   T   T   T
  0.1200406686557765  0.7247265609055396  0.2302508339658727   T   T   T
  0.4030025400240240  0.7772304396461166  0.7660402508566700   T   T   T
  0.9187575842172926  0.3080273046439184  0.3612825682627734   T   T   T
  0.6024749517530511  0.1880061692845262  0.6324888972281517   T   T   T
  0.4586995570787348  0.3164339046582844  0.3927059724897524   T   T   T
  0.0495253642089203  0.1860159577091790  0.6188483717709897   T   T   T
  0.8299981876969328  0.4177687794322082  0.6376262736180575   T   T   T
  0.6930424792512966  0.0810851266221623  0.3597239463107957   T   T   T
  0.1973307820649668  0.3696790984162850  0.8767665058441425   T   T   T
  0.5748408308435725  0.3958736115051943  0.1484973939097780   T   T   T
  0.9442626457714393  0.1135081891804510  0.8676593763037047   T   T   T
  0.7303380876187624  0.3662070130037879  0.9022129273955219   T   T   T
  0.3801089562986238  0.1222366231014635  0.1031041514912900   T   T   T
  0.4207102832796100  0.8148906934485172  0.3670042426091403   T   T   T
  0.1067003861744767  0.6855534901736466  0.6286048229252857   T   T   T
  0.9728691030884896  0.8145349902364838  0.3834553800830461   T   T   T
  0.5607368004001505  0.6929911812050188  0.6177974680542454   T   T   T
  0.3288306070026137  0.9198641305527828  0.6398745125819044   T   T   T
  0.1959818686265529  0.5838748327787588  0.3585789475111463   T   T   T
  0.8234038014080055  0.6361908700358624  0.1243203271617056   T   T   T
  0.6941247753762694  0.8764977448894605  0.8896964648023818   T   T   T
  0.0586604665150764  0.9073477576002134  0.1496479536571032   T   T   T
  0.4644332125253127  0.6068068053973783  0.8482759950812351   T   T   T
  0.2224643328165556  0.8558148376486653  0.8937633254567096   T   T   T
  0.2866943472669520  0.6345591304219699  0.0997785503457736   T   T   T
