Sr Co O 
 1.0000000000000000
    -4.8853934605914224    2.7247782125891868    0.6186578999523586
    -5.0036455237906736   -8.3881073148029781    0.5407468449940214
     3.7358037616936857    2.9048414310131814    8.7451500572751222
 Sr  Co  O  
   8   8  20
Selective dynamics
Direct
  0.0232085872652736  0.2759161008838705  0.8241186544354197   T   T   T
  1.0064619298896298  0.6819541151774871  0.1206195918226635   T   T   T
 -0.0340010819298168  0.1442538538606314  0.3819429183013625   T   T   T
  0.9941450694335622  0.8393228267636412  0.6407499366033685   T   T   T
  0.5254181230826467  0.7648339541883394  0.8592381126250397   T   T   T
  0.4593281216079633  0.2347149626266807  0.1389748377183262   T   T   T
  0.4866413649345079  0.6115168698551526  0.3996608092236329   T   T   T
  0.5004190831073999  0.3801382292675724  0.6039702507883559   T   T   T
  0.0276453154365940 -0.0123776806100870 -0.0077961540409624   T   T   T
  0.3878170996375898 -0.0182175804369558  0.5079309455775862   T   T   T
  0.4715690986369378  0.9455207197048136  0.2430521651462261   T   T   T
  0.5250424770864083  0.0746048904277058  0.7983063284016971   T   T   T
  0.5278878542850355  0.4680408346999297 -0.0406478668008328   T   T   T
 -0.0032074296993411  0.4936597621254349  0.4959954012241546   T   T   T
 -0.0404749992286829  0.4206470876104885  0.2289217112038030   T   T   T
  1.0135468394764702  0.5794372566917814  0.7662453508651540   T   T   T
  0.3447665930330170  0.8146655183202811  0.3142733675347575   T   T   T
  0.1050077641437788  0.0509072723436059  0.5777682855889026   T   T   T
  0.5510444103072641  0.8923155672726768  0.6274736852445437   T   T   T
  0.5365985439739703  0.1078071587880390  0.4366473807117356   T   T   T
  0.7286385045006817  0.9101117950481477  0.1454617141104125   T   T   T
  0.2798577273085441  0.0235864818937036  0.8847544342458061   T   T   T
  0.4991832127023688  0.2674520316375094  0.8038928195105355   T   T   T
  0.7946936366706416  0.1006458314683305  0.9375262161343418   T   T   T
  0.2165035225505516  1.0333067307058932  0.1675078737907432   T   T   T
  0.7593121068525207  0.3684321680096426  0.3495948364919437   T   T   T
  0.2324599985488815  0.6140205905337071  0.6416399941063787   T   T   T
  0.2153998029665259  0.3776941444131827  0.3583031940447697   T   T   T
  0.7680656431009021  0.6021293980921326  0.6284133614452275   T   T   T
  0.0223183755451550  0.3772840312077877  0.6177623176224926   T   T   T
  0.9743999509900396  0.6259747063058865  0.3952230664052404   T   T   T
  0.7793017665057907  0.5318507585792664  0.8746217520277089   T   T   T
  0.1582150763343886  0.4117593293829542  0.0944185375134791   T   T   T
  0.9834924006835959  0.7874540072387477  0.8853377024896353   T   T   T
  0.2794305083598639  0.5686962447618386  0.9067839921164275   T   T   T
  0.6760130859988708  0.4750900691360989  0.1326124195513927   T   T   T
