Sr Co O 
 1.0000000000000000
    -0.0080247478982693    5.5268170178828964   -0.0337235003678464
     9.5693559792936398   -0.0040762301757192   -1.3359158776690974
    -3.4038003329938098   -2.7017236532054336   -8.7374889894624790
 Sr  Co  O  
   8   8  20
Selective dynamics
Direct
  0.5983633754366208  0.8407961345967273  0.1765732397464758   T   T   T
  0.9329117672418393  0.6485319148820103  0.8501437763877118   T   T   T
  0.7810207620503458  0.9547705643739417  0.5927210357482389   T   T   T
  0.7211638121419860  0.5718334905622894  0.4133252572564947   T   T   T
  0.0893547225291500  0.3461235152539886  0.1547067826863337   T   T   T
  0.3920624826670027  0.1654242484715089  0.8313312505994276   T   T   T
  0.2914177921211736  0.4273482509268162  0.5795415123579453   T   T   T
  0.1825282676811940  0.0545523594791896  0.3976031848321233   T   T   T
  0.0961476889050730 -0.0166197867887662  0.0506280344149751   T   T   T
  0.7388855960489142  0.2491254293306649  0.4871523098051808   T   T   T
  0.8216927367357022  0.3120232729091323  0.7519508513400183   T   T   T
  0.6439430704334848  0.1866182726203168  0.2210486254517907   T   T   T
  0.5179996358183095  0.5134273218023160  0.0131666184595556   T   T   T
  0.2668919007625329  0.7545366595993223  0.5125544536216553   T   T   T
  0.3761566272655268  0.8122913376772422  0.7730312021347131   T   T   T
  0.1132433992446936  0.6896562020046940  0.2382890668354195   T   T   T
  0.7932500912985971  0.4334599355281293  0.6212831105613175   T   T   T
  0.6920564548720296  0.0612521303669896  0.3688191749327247   T   T   T
  0.0251755043722405  0.2104873853367194  0.6321173993243918   T   T   T
  0.4687265033791383  0.3005721836944870  0.3445773830089514   T   T   T
  0.9293932541145171  0.2983995137130006  0.3659563608967301   T   T   T
  0.5336956940125780  0.1946427955518629  0.5958073379163441   T   T   T
  0.8968494912243967  0.2052158007886934  0.8786329829670114   T   T   T
  0.3416764643901821  0.1306930129916233  0.0757241400338576   T   T   T
  0.8619194904030517  0.0930312548476817  0.1181300608720042   T   T   T
  0.5833954829621367  0.4314799270590439  0.8437503630143725   T   T   T
  0.2925347350372680  0.9433596304398715  0.6416105596605056   T   T   T
  0.2301764536587392  0.5751944075202037  0.3789048842440093   T   T   T
  0.5897417575585138  0.7339606498061906  0.6590051742364550   T   T   T
  0.9662569571683851  0.7929573944274541  0.3855084767589773   T   T   T
  0.4109933080665104  0.8075155579146978  0.3717447969973622   T   T   T
  0.1095664832424466  0.6779876948222610  0.6368121660815175   T   T   T
 -0.0026027170847907  0.8236417420954608  0.1085470258554072   T   T   T
  0.8035525399995662  0.5682950366544787  0.1600300693377756   T   T   T
  0.2545919067773606  0.5700468239791158  0.0807862792840388   T   T   T
  0.2732668378037426  0.8573679031173903  0.9364852992838097   T   T   T
