Sr Co O 
 1.0000000000000000
    -4.7032606107499317    2.7379680196224156    0.7981128994512062
    -4.8902528779622889   -8.4977594929319533    0.7480609576046909
     3.0788757594090512    2.9384051702792364    8.8058648167853288
 Sr  Co  O  
   8   8  20
Selective dynamics
Direct
 -0.0226920604479709  0.2885732356135155  0.8516784202007818   T   T   T
  0.9959742151302214  0.7060462221876103  0.1094906680122178   T   T   T
 -0.0061316506415602  0.1093284362971085  0.3754426174247212   T   T   T
  1.0114207170716569  0.8581005622437754  0.5994175166566856   T   T   T
  0.4758968359177617  0.7820123807832351  0.8580114910877479   T   T   T
  0.4691547721808682  0.2283151059624528  0.1460042265615059   T   T   T
  0.5074186303078376  0.6446471184215228  0.3366516319117541   T   T   T
  0.5131155875489305  0.3469642366599432  0.6131660984059121   T   T   T
  0.0010964249713079 -0.0140420660550812 -0.0253453308906416   T   T   T
  0.5284433269538983 -0.0122596422443855  0.4948623075642585   T   T   T
  0.4673699334056324  0.9176870125688956  0.2278499799895770   T   T   T
  0.5118265455533227  0.0753355438519657  0.7733227688002748   T   T   T
  0.4796808269295850  0.4954859156587831 -0.0232230295517406   T   T   T
  0.1160468278344104  0.4886124589062901  0.4793244229101571   T   T   T
 -0.0220348417791370  0.4276603028931632  0.2078288108938446   T   T   T
  0.9842585043823372  0.5798860701458173  0.7598232817973277   T   T   T
  0.2571451780436714  0.8876978110172175  0.3966103071372918   T   T   T
  0.7535989219060742  0.1082874246711808  0.6245220395892026   T   T   T
  0.7451570601945607  0.8740255354645834  0.3217712441058148   T   T   T
  0.5312146674459133  0.8835298038819319  0.6268359306178324   T   T   T
  0.4921578211487987  0.1101878917872083  0.3744512194878689   T   T   T
  0.1909196944983781  0.0398856187870585  0.8365838707824951   T   T   T
  0.4712251877285578  0.7334801154674047  0.0966763094618591   T   T   T
  0.4670556841221808  0.2701103623364427  0.8496757082405169   T   T   T
  0.6970630895469978  0.0406854846497528  0.9351093184617065   T   T   T
  0.2140234780031229  0.9809424336721738  0.1231261999596602   T   T   T
  0.9931407731763905  0.3793457292244128  0.5898315367811426   T   T   T
  0.2032628606784830  0.6452777129611609  0.6513621282369843   T   T   T
  0.4064987696299874  0.4199119273717614  0.3980571747607536   T   T   T
  0.9485248218065413  0.5977960581551923  0.3839434529204966   T   T   T
  0.2652634194436288  0.4688554072753903  0.1277567824933875   T   T   T
  0.6948306463188515  0.5297064766349859  0.8239833569848590   T   T   T
 -0.0635296198846504  0.2478852069317593  0.2048862454764486   T   T   T
  0.9420311264871070  0.7789839368215896  0.8883170773282231   T   T   T
  0.2101365123365241  0.5146336912145661  0.8723451485317556   T   T   T
  0.7489857061952395  0.4749685574115169  0.0879493100515347   T   T   T
