Sr Co O 
 1.0000000000000000
    -4.7242462090017092    2.7896784290494505    0.7512949676749644
    -4.7493768271887538   -8.3940466563320744    0.7833596985300152
     3.1120802168567598    2.7764428415402360    8.7760520669607640
 Sr  Co  O  
   8   8  20
Selective dynamics
Direct
 -0.0143229403147240  0.3118606961715247  0.8638465724555980   T   T   T
  1.0200393149680831  0.7117555950633873  0.1496491979517233   T   T   T
  0.0216266388151858  0.1141103438269818  0.3807003844036034   T   T   T
  1.0146158545653876  0.8584125387567826  0.6082881202340313   T   T   T
  0.4811550055723703  0.7610750359197264  0.8760534074761891   T   T   T
  0.5114922264709086  0.2255050823918719  0.1606273741117919   T   T   T
  0.5171907174073104  0.6377683639364157  0.3523500690646560   T   T   T
  0.4780262186270297  0.3669436503152056  0.5874446629934887   T   T   T
  0.0163735756351618 -0.0350588742509637 -0.0024057039626145   T   T   T
  0.4986428914486598  0.0016744920057983  0.5073189445308458   T   T   T
  0.5306767257422775  0.9214001258761551  0.2379657007740009   T   T   T
  0.4149629664286298  0.0868475594320753  0.7841769526252961   T   T   T
  0.5046340060692971  0.4958736546249403 -0.0023178820808866   T   T   T
  0.0036835869418201  0.4964690915104051  0.4960543794193605   T   T   T
  0.0106521224971269  0.4251734810587708  0.2363391949647946   T   T   T
  0.9849545432100493  0.5779040134819394  0.7691011914230055   T   T   T
  0.2810390604220774  0.8752384589866943  0.3539037909881351   T   T   T
  0.7489645218456369  0.8943146342049949  0.3917365097257573   T   T   T
  0.2586712070267456  0.1260493226685468  0.6196750701270013   T   T   T
  0.5292625006394894  0.9076158651800885  0.6548399047286011   T   T   T
  0.5234644674523116  0.1174172968135565  0.3845224522711883   T   T   T
  0.7907083138568752  0.9969114003926073  0.1400226782986257   T   T   T
  0.1122449621495804  0.0617495697786902  0.8702914808266495   T   T   T
  0.5586509190683120  0.7219131304719076  0.1229073379677498   T   T   T
  0.5490324601722888  0.2516960035841029  0.8968117650830583   T   T   T
  0.3023022839226304  0.9672121864888382  0.1041917559503207   T   T   T
  0.7465562208417609  0.4029611435371830  0.3688274641354684   T   T   T
  0.2251811944032711  0.6115336493827744  0.6371430305679882   T   T   T
  0.2074665374262468  0.3440547278823824  0.3472212211020945   T   T   T
 -0.0342961336139988  0.3850331804401692  0.6212522560927365   T   T   T
  1.0162466887666930  0.6299930975783934  0.3937768184676140   T   T   T
  0.2903395469886370  0.4532866961541733  0.1365914098088837   T   T   T
  0.6926038056331034  0.5210020681095184  0.8366097537925212   T   T   T
  0.9335461388633638  0.7827708046334276  0.8501317177111958   T   T   T
  0.2161042511904905  0.5484225467351993  0.9065190315560020   T   T   T
  0.7973581584523139  0.4599596596825170  0.1085320763345512   T   T   T
