Sr Co O 
 1.0000000000000000
     4.7408266721793177   -2.7672951197408970   -0.7557099901369863
     4.6698383281525730    8.2098143717075889   -0.8235633815576732
    -1.6305988351230092   -0.0236636883066792    9.5711921520448158
 Sr  Co  O  
   8   8  20
Selective dynamics
Direct
  0.4340869110333485  0.1491511258072058  0.8373999754847984   T   T   T
  0.0766878720951145  0.3732869758730982  0.1383718311511993   T   T   T
  0.1973909482013751  0.0584772290560363  0.4080674429854163   T   T   T
  0.3225284972681211  0.4552867301069127  0.6256930828437702   T   T   T
  0.9336208946467550  0.6372817158564766  0.8489061692418057   T   T   T
  0.5490517362696625  0.8278890992486898  0.1476884745067644   T   T   T
  0.6688923699879862  0.5737173453616541  0.3986827557084199   T   T   T
  0.7942728727540569  0.9256457724751427  0.6050174937956705   T   T   T
 -0.0087368062382788 -0.0004596091172128 -0.0020620443719011   T   T   T
  0.7291521194802805  0.2437888589778259  0.4864850101388082   T   T   T
  0.6290599356758353  0.1946704120560040  0.2175203658750294   T   T   T
  0.8996590365112375  0.3033012770703877  0.7502938205906834   T   T   T
  0.5024255677789631  0.4944655740282065 -0.0067802209609618   T   T   T
  0.2345641883835339  0.7486395986192208  0.5081271544853051   T   T   T
  0.0783964648863032  0.6911023554458324  0.2439787750914176   T   T   T
  0.4020500535116435  0.8081872318743276  0.7786827386054846   T   T   T
  0.6070974736909265  0.1791795546423320  0.6378940128299636   T   T   T
  0.4466510386597941  0.2859315926820625  0.3431355851419812   T   T   T
  0.0497576061804307  0.2044979691764723  0.6070076296832413   T   T   T
  0.7815126742376671  0.4304572910453317  0.5945797870691378   T   T   T
  0.7028291124062004  0.0718997201966960  0.3512404846020739   T   T   T
  0.2135320496236046  0.4027233026730137  0.8476772932696370   T   T   T
  0.5019461936696604  0.3072866181382580  0.0881550261276243   T   T   T
  0.7535972693781463  0.3771165527239985  0.8899247775866639   T   T   T
  0.9010580551651549  0.1204659147170041  0.1431322072282019   T   T   T
  0.3782093908536239  0.8065400634760533  0.3638672514740743   T   T   T
  0.0978419423745942  0.7027139747595373  0.6551392224724482   T   T   T
  0.9300585624453892  0.7993534096042194  0.3799589990912793   T   T   T
  0.5410784404692457  0.7064194629694329  0.6315816344540913   T   T   T
  0.2899595530534969  0.9294757945467071  0.6325925460180956   T   T   T
  0.1802070824061569  0.5580198413831162  0.3947251512364970   T   T   T
  0.7633133685934232  0.5838955010430376  0.1559860095318744   T   T   T
  0.7124713050780743  0.9254241449674413  0.8561962166244952   T   T   T
  0.5063169988613639  0.6649386378136783  0.8973827163957383   T   T   T
  0.2545708094239046  0.9306043487655953  0.9346668085386337   T   T   T
  0.2238881926927943  0.6216245293493653  0.1030836220844973   T   T   T
