Sr Co O 
 1.0000000000000000
    -4.8716876779173051    2.7498662295787160    0.6023978422432950
    -4.9308791342183493   -8.3656524332574005    0.4843468913131281
     3.7070544181040801    2.9175264623375439    8.7746731611467119
 Sr  Co  O  
   8   8  20
Selective dynamics
Direct
  0.0164799893676560  0.2921589379524960  0.8807244942921472   T   T   T
  1.0171713390163317  0.6786707401996608  0.1382962688468146   T   T   T
 -0.0306133244267528  0.1524096779431467  0.3592299237117943   T   T   T
  1.0121820070724290  0.8777231844785396  0.6194270362080502   T   T   T
  0.5410590206729079  0.8028236647646428  0.8561781943615885   T   T   T
  0.5304842450884625  0.2279343656580516  0.1076557789615488   T   T   T
  0.5073534496111135  0.6091437097793798  0.3883120927692141   T   T   T
  0.4915529788229070  0.3980607270827844  0.6527891624100702   T   T   T
  0.0231917091773935  0.0141482510299851 -0.0169318894739634   T   T   T
  0.4346675057030541  0.0179067819829098  0.4845634931134407   T   T   T
  0.4872540575853449  0.8920809919501428  0.2059679663780695   T   T   T
  0.4893223126188676  0.0841936958858668  0.7527060093012385   T   T   T
  0.5221517432770594  0.4989559209367555  0.0090521533647576   T   T   T
  0.0088048993853435  0.5230366612164522  0.5152162481173717   T   T   T
  0.0272722345760709  0.4177735239860338  0.2470769032155233   T   T   T
  1.0134461238666175  0.6118894054503379  0.8005128077895147   T   T   T
  0.6732516390070384  0.1460382898966342  0.5177006058420214   T   T   T
  0.2179246139958904  0.1272850301663397  0.6329862899982007   T   T   T
  0.5021250657089746  0.8878265777538856  0.5864737529033035   T   T   T
  0.2217456061681210 -0.0702988389458564  0.3135271360019329   T   T   T
  0.6605405541202695  0.9950593625684733  0.1395903107100021   T   T   T
  0.2794819905380132  0.0256952914745180  0.8707731616484262   T   T   T
  0.5493750506623316  0.6994422073531792  0.1716626886441984   T   T   T
  0.5345151805205587  0.2852912503000142  0.8613291461928887   T   T   T
  0.7772530358821501  0.0286205173004029  0.8396253650752322   T   T   T
  0.7851003553511509  0.3923420421848899  0.3638943019351468   T   T   T
  0.2310795964532331  0.6326207000982247  0.6724388919563626   T   T   T
  0.2391399429432083  0.3931446968756118  0.4063819857024983   T   T   T
  0.7829344490523967  0.6253069472939167  0.6461784751890558   T   T   T
  1.0212283823647603  0.6340014692418915  0.3792295994868096   T   T   T
  0.2750538761916926  0.4493011897089263  0.1411637898986113   T   T   T
  0.7639551009329347  0.5537960391467851  0.8778270872524000   T   T   T
  0.0486402676198477  0.1978318291490291  0.1318884070427363   T   T   T
  1.0511182140415012  0.8206036894795171  0.9568219261000906   T   T   T
  0.2448786007214955  0.5220274832103162  0.8872255167131846   T   T   T
  0.7948781934291022  0.4371540685644310  0.1045045940994785   T   T   T
