Sr Co O 
 1.0000000000000000
     0.0523409779343865    5.4226474279337529    0.0132372925354150
    -9.8565401367847656   -0.0792228238170421    1.2121018174186109
    -1.2385619930190299    0.0241008460303148    9.4363334852631287
 Sr  Co  O  
   8   8  20
Selective dynamics
Direct
 -0.0139640720364081  0.7225806799281060  0.8450176814730800   T   T   T
 -0.0311472017817497  0.3066467333609937  0.1101211720935347   T   T   T
  0.0169599637662386  0.8387718168386383  0.3784252755494308   T   T   T
  0.0254901922939601  0.1533564258699445  0.6163686198535001   T   T   T
  0.5106930267384477  0.2402853364778490  0.8426417894610581   T   T   T
  0.5111233590473422  0.7617791382000088  0.1567750375559795   T   T   T
  0.5020812536844841  0.3849051942465937  0.3661339017780902   T   T   T
  0.5335208826083291  0.6160536598634776  0.5952604176332020   T   T   T
 -0.0160252828002279 -0.0238905542748979  0.0091980295981511   T   T   T
  0.0202994146872767  0.4990214280690237  0.4833266078776962   T   T   T
 -0.0005295563816562  0.5840366668323482  0.2155309194323479   T   T   T
 -0.0031200277067904  0.4252387331582146  0.7453340734658561   T   T   T
  0.5025380276576176  0.5388956428996108 -0.0252013328496810   T   T   T
  0.5497913920621661 -0.0030470847415693  0.5083142678323885   T   T   T
  0.4050846223878097  0.0878681158193015  0.2305666328109253   T   T   T
  0.4847549405111928  0.9283318226648614  0.8128798425297556   T   T   T
  0.0091382016842322  0.3953513383273558  0.3394115001839810   T   T   T
  0.0382922457146363  0.6105905417277139  0.6287161406290420   T   T   T
  0.2555715389148359  0.6122648078402168  0.3533006638391530   T   T   T
  0.7701761498670073  0.3858991327652116  0.5922485937131973   T   T   T
  0.2525743178602239  0.3882918214559587  0.6139861151172328   T   T   T
  0.7902849749562776  0.6184015127311685  0.3675410079695904   T   T   T
  0.0036668356742971  0.7803884644172145  0.1136732327677687   T   T   T
  0.0238073342375755  0.2558250915587441  0.8659723146400858   T   T   T
  0.1963210670690086  0.5370840370405878  0.0548107457553799   T   T   T
  0.7030078737982801  0.4777842835049227  0.8473015735290803   T   T   T
  0.7077685479375556  0.5360274859707985  0.1296573100575195   T   T   T
  0.5525694694446324  0.0860979731309772  0.6608309802888593   T   T   T
  0.7931794467355836  0.8869281002359505  0.5858999342734781   T   T   T
  0.3212893612088406  0.1236273728294290  0.4182072049659273   T   T   T
  0.5076265839498699  0.2505906295569255  0.1183213285891204   T   T   T
  0.4930405887132828  0.7363822079608593  0.8544488580000168   T   T   T
  0.5170133446729037 -0.0871237739334533  0.3463364089200535   T   T   T
  0.1389761278157317  0.9661861286908692  0.8363703658427455   T   T   T
  0.6379999453932115  0.9888004366399066  0.9702291230094213   T   T   T
  0.0851448945424249  0.0487690467615689  0.1620434539682572   T   T   T
