Sr Co O 
 1.0000000000000000
     0.0063770519327575    5.5938404225944245    0.0656744900162207
    -9.5600303206258435   -0.0261583460631686    1.4216985162014455
    -1.5029898818599405    0.1195421403362766    9.4239737258235099
 Sr  Co  O  
   8   8  20
Selective dynamics
Direct
  0.0230962679426429  0.7418652563269177  0.8348345705694221   T   T   T
  0.0218639157757389  0.2842340845728982  0.1547921071028932   T   T   T
  0.0201110398570150  0.9016014688156516  0.3779529660440785   T   T   T
  0.0174347814360838  0.1099808715249781  0.6203930152953300   T   T   T
  0.4976340213626957  0.2082524291517745  0.8398089727705752   T   T   T
  0.4702784529941972  0.8131968574363256  0.1001683845449818   T   T   T
  0.5000529523330339  0.3467288527206950  0.4198420352547759   T   T   T
  0.5361680317301781  0.6543045568755380  0.6107402685748440   T   T   T
  0.0101089208165296  0.0071887894924251 -0.0176128395235366   T   T   T
  0.0116386551462177  0.4942848061594654  0.5223848659127616   T   T   T
 -0.0901145476500049  0.6073462159228815  0.2362965170816560   T   T   T
 -0.0075295975193634  0.4003293814760301  0.7886105939819740   T   T   T
  0.5752916816737563  0.5046014162514628  0.0056873091046936   T   T   T
  0.5189786940370694  0.0083663072131137  0.4794590848332763   T   T   T
  0.4790988578346410  0.1076858278408073  0.2127089613189749   T   T   T
  0.5204894393598397  0.9133354186435981  0.7515428341606391   T   T   T
  0.0853997102555057  0.5857314384187596  0.6660226957936722   T   T   T
  0.0360525331931812  0.4289113847335187  0.3507701020487116   T   T   T
  0.7155584614499645  0.4031815600656319  0.6438255848593557   T   T   T
  0.1921422071960299  0.3410957776063422  0.6422353421720522   T   T   T
  0.8541422421088484  0.6570956081736830  0.4119576210697455   T   T   T
  0.0201975795000947  0.7739389830605924  0.1080833590132497   T   T   T
 -0.0567576932491249  0.2134087347216588  0.9119758475566958   T   T   T
  0.8933520872365160  0.4830125807174660  0.9368879598776277   T   T   T
  0.6041714202443296  0.5528012402608187  0.1865626621771604   T   T   T
  0.5085503775342766  0.9075393620623637  0.3319170804461253   T   T   T
  0.5448969153447403  0.1075268224541141  0.6221759429191116   T   T   T
  0.7318032890450942  0.1368147876295631  0.3346612018065350   T   T   T
  0.2982657169958572  0.8843425181484977  0.6113460673110055   T   T   T
  0.7560905305972473  0.8844845227616681  0.6081846961403365   T   T   T
  0.2687152695204181  0.1314717917240142  0.3824457369306315   T   T   T
  0.4682612051483905  0.3089022568393470  0.0738959852198637   T   T   T
  0.4933673460297728  0.6886030612865068  0.8748791706749861   T   T   T
  0.2595917162868793  0.9676780000965768  0.8552873268323353   T   T   T
  0.7435485217888561  0.9586385098788399  0.8905531792265688   T   T   T
  0.2190492368542965  0.0445186011623668  0.1207225789505983   T   T   T
