Sr Co O 
 1.0000000000000000
     0.0148326022034741    5.5359420265881170    0.0261178869366569
    -9.4356172873399409   -0.0264614953432866    1.4737416151270348
    -1.5713401217783234    0.0433046513169953    9.4287069375321870
 Sr  Co  O  
   8   8  20
Selective dynamics
Direct
  0.0016593118523793  0.7442192588239144  0.8429269023663997   T   T   T
  0.0065838893164248  0.2772141845685345  0.1613073525630618   T   T   T
  0.0204531530399487  0.8673611386566326  0.3861644770622105   T   T   T
  0.0224707686947370  0.1202734663167603  0.6012837405020833   T   T   T
  0.4728546517811719  0.2001041964895069  0.8627989735106094   T   T   T
  0.4979910247040914  0.7818455433710921  0.1374188685439098   T   T   T
  0.5126290754043196  0.3650237769329042  0.3846857992290788   T   T   T
  0.5065349209926642  0.6542935472794332  0.6026754347234522   T   T   T
  0.0034835853890734 -0.0015068706199454 -0.0081515687365515   T   T   T
  0.0337605214088763  0.4981762107361140  0.5127976798742474   T   T   T
 -0.0099577302781282  0.5886803725729621  0.2456496102436410   T   T   T
 -0.0287868607894180  0.4021912404927855  0.7761395892283801   T   T   T
  0.5576061936005716  0.5004520429614372 -0.0121628399271568   T   T   T
  0.5208588813312119  0.0062669415361121  0.4908646633144571   T   T   T
  0.4808989785539257  0.0972190350514990  0.2243383665008341   T   T   T
  0.5037964381452793  0.9161559312127506  0.7633439217121051   T   T   T
  0.0169390408933606  0.3881871409380321  0.3776801207265800   T   T   T
  0.0387485632798616  0.5944243552342672  0.6581977422753206   T   T   T
  0.2589874776384274  0.6222558860600147  0.3574114112187785   T   T   T
  0.2068406013860073  0.3532863134918227  0.6553629845477478   T   T   T
  0.7740156414303165  0.6068757222651826  0.4143428694003756   T   T   T
  0.0003399813870508  0.7776828531772987  0.1190507823690742   T   T   T
 -0.0463792521484864  0.2220188450325561  0.9143314097917898   T   T   T
  0.6699996296664805  0.4567421522092396  0.8199474834886813   T   T   T
  0.7472696777952621  0.5224452057481640  0.1419467590491605   T   T   T
  0.5257918423072523  0.8990189960932551  0.3500314077486126   T   T   T
  0.5415742240793786  0.1170063302459127  0.6252792716660837   T   T   T
  0.7362106635655248  0.1300466277629001  0.3461791839815485   T   T   T
  0.2916573325187887  0.8833943504673397  0.6178349214180553   T   T   T
  0.7494635429123623  0.8817030769916049  0.6253683503163268   T   T   T
  0.2685732170083289  0.1236052021193884  0.3830027689407477   T   T   T
  0.4534665160608926  0.3045217384090261  0.0971725849233806   T   T   T
  0.4603207167655751  0.6966329157493253  0.8949017633238576   T   T   T
  0.2251406177181327  0.9759452461313806  0.8459898567836484   T   T   T
  0.7140134927041882  0.9597462023590012  0.9106696558818138   T   T   T
  0.2311899369623439  0.0324910287739039  0.1259175832549123   T   T   T
