Sr Co O 
 1.0000000000000000
    -4.7908396266493529    2.6988714183691949    0.7291416028887280
    -4.8463084166875721   -8.1766201909178271    0.7254128349281332
     3.2723039016596496    2.7376853762007634    8.7114837875189988
 Sr  Co  O  
   8   8  20
Selective dynamics
Direct
 -0.0072230956989539  0.2835156918575655  0.8399362200766908   T   T   T
  0.9944632292330980  0.7077154626538007  0.1296820424747138   T   T   T
 -0.0098892485984030  0.1574869947321134  0.4060832229379582   T   T   T
  1.0059101748892327  0.8688901621322093  0.6049468564777966   T   T   T
  0.5301447847435260  0.7938359192850106  0.8404557461142511   T   T   T
  0.5159828230261558  0.2003378553805560  0.1531814992991022   T   T   T
  0.4882924348198998  0.6188206847652115  0.4015612285674816   T   T   T
  0.5020937638757181  0.3850559862058381  0.6148410754907272   T   T   T
  0.0241123408026271  0.0061673908261679 -0.0197724155677496   T   T   T
  0.4635057375443525  0.0097659444968776  0.4936509371474834   T   T   T
  0.4714700335234079  0.8978286878484503  0.2343502927713407   T   T   T
  0.5127350252534418  0.0846786775898917  0.7573859856171563   T   T   T
  0.5332680108439215  0.5239876159083670  0.0025674072335035   T   T   T
 -0.0021818902397503  0.5086595651648874  0.4996967972232783   T   T   T
 -0.0289528624433619  0.3956726471909623  0.2312475789651520   T   T   T
  1.0260559856244102  0.5946688182706282  0.7736336525095966   T   T   T
  0.2117422737112234  0.9043241250329125  0.3592259144335184   T   T   T
  0.7253781173526265  0.1180417327013187  0.6144659536961827   T   T   T
  0.2693201418523128  0.1483425860868230  0.6490387471224673   T   T   T
  0.4801283632551298  0.8759162189348015  0.5942583600829797   T   T   T
  0.5004717959699186  0.1002749049150813  0.3554173082392030   T   T   T
  0.6815132603660737  0.9159601984402848  0.1095305014214478   T   T   T
  0.3056245668362250  0.0808633607452301  0.9032204206316100   T   T   T
  0.4697580563190797  0.6923990246258548  0.1733954500688205   T   T   T
  0.7837574430873949  0.0307557428454827  0.8455675182159991   T   T   T
  0.7433329781028973  0.3874352429136037  0.3889776877374627   T   T   T
  0.2480446083138692  0.6206185547185816  0.6332911656563924   T   T   T
  0.2226398903180126  0.3829555621286032  0.3628799721850415   T   T   T
  0.7992412400584795  0.6447309274193203  0.6398913276219660   T   T   T
  0.0046928605342938  0.3998328044100241  0.6294612530528851   T   T   T
  0.9765559199949382  0.6092505154246401  0.3528317765712468   T   T   T
  0.7533455287651948  0.5531441009730368  0.8739317758144205   T   T   T
  0.0041723835630394  0.1780754900321581  0.1442372976080228   T   T   T
  1.0848709689637606  0.8029785634120175  0.9160103861320983   T   T   T
  0.2484359832706384  0.5103828878657722  0.8977717038460188   T   T   T
  0.7363367334715052  0.4067793818670726  0.0844473577248267   T   T   T
