Sr Co O 
 1.0000000000000000
    -4.7938699956043385    2.8154704759388123    0.7740857999068432
    -4.6365664640690349   -8.2046193431582424    0.6677466845112208
     3.1090914703170145    2.7946674093564159    8.6720621233385256
 Sr  Co  O  
   8   8  20
Selective dynamics
Direct
 -0.0141520617317632  0.2795609090657286  0.8535253539716077   T   T   T
  1.0142126266668434  0.6985708791675088  0.1587001416691512   T   T   T
  0.0113324299095400  0.1430299047537405  0.4066387757446109   T   T   T
  1.0117540243326262  0.8689965270835033  0.5893605068980107   T   T   T
  0.5027410171662876  0.7905362750335827  0.8357041975432166   T   T   T
  0.5081143735652126  0.2342509741178558  0.1592105803010426   T   T   T
  0.5138407630497450  0.6300725129754100  0.4033007842636308   T   T   T
  0.5181914611392274  0.3678308521597786  0.5972988765033652   T   T   T
 -0.0126770430153363  0.0059676600414747 -0.0199956276163612   T   T   T
  0.5094164251322647 -0.0019616892125790  0.4903867466843270   T   T   T
  0.5013394697158188  0.9013447038589154  0.2273409615182957   T   T   T
  0.4904357555816872  0.0831956603645291  0.7599465109018840   T   T   T
  0.5295879407460745  0.5203227752072411  0.0269151162057167   T   T   T
  0.0092079196420841  0.5081174074605761  0.5112999850905553   T   T   T
  0.0209117032263306  0.4000050776219884  0.2364590492478785   T   T   T
  0.9634929629436048  0.5979537084838481  0.7804324267351943   T   T   T
  0.2540591790772892  0.8875531021345359  0.3653749255613556   T   T   T
  0.7379583204782889  0.1204689091387701  0.6341492151445351   T   T   T
  0.7394163476792022  0.8661590112207055  0.3596584195338438   T   T   T
  0.2908910585505524  0.1340295058164105  0.6251729085101631   T   T   T
  0.4974885159494864  0.8765517863127973  0.6077443805252294   T   T   T
  0.5275815989911212  0.1062419359986112  0.3505607260158824   T   T   T
  0.2202533306203317  0.0373813579301343  0.8542317817943068   T   T   T
  0.4394064315523391  0.7271027163902188  0.0709663726888110   T   T   T
  0.6941909421724324  0.0693917974642996  0.9096987447906174   T   T   T
  0.7938248343371908  0.3779993652182601  0.3747370589626224   T   T   T
  0.2119682743828626  0.6393161200256230  0.6613253034682588   T   T   T
  0.2502747668835998  0.3884519830481807  0.3848527210503581   T   T   T
  0.7554433110443954  0.6258741272845715  0.6203007127496073   T   T   T
  0.0124679520289045  0.3986100872827687  0.6454049571879992   T   T   T
  1.0228276696757765  0.6071041276174476  0.3707465117651096   T   T   T
  0.2606772360670463  0.4383902098026189  0.0890667491651020   T   T   T
  0.7062084138703986  0.5120220826464909  0.8604704425645289   T   T   T
  0.0339406847529607  0.1723317990532623  0.1467513017635029   T   T   T
  0.9542826958831971  0.7973699510735612  0.9336576903942823   T   T   T
  0.7680888537158026  0.4348558090373034  0.1106044897462440   T   T   T
