Sr Co O 
 1.0000000000000000
     4.6891311271777960   -2.7778539692391693   -0.8414315587490727
     4.6367463179520421    8.2843451057664659   -0.8041259148237180
    -1.8031359331268182    0.0338020151764947    9.4791603488458005
 Sr  Co  O  
   8   8  21
Selective dynamics
Direct
  0.4375031105189851  0.1250123594965173  0.8632989400570827   T   T   T
  0.0767753026135769  0.3514040586249287  0.1642363694584981   T   T   T
  0.1946450703485560  0.0653735860606525  0.3901436050332404   T   T   T
  0.3076212441288728  0.4420174209553993  0.6063665490924767   T   T   T
  0.9369991070190490  0.6636095434197380  0.8456045323784122   T   T   T
  0.5663419937290396  0.8720658593919350  0.1434060693194759   T   T   T
  0.6960583768957443  0.5611580262771574  0.4004319298499945   T   T   T
  0.7992705944125487  0.9293289532412057  0.5979003587611665   T   T   T
  0.0061281138547028 -0.0067155844688058  0.0069488689529626   T   T   T
  0.7521052734362451  0.2501589007192235  0.5131584375721072   T   T   T
  0.6210460514904255  0.2127492323941993  0.2385017661057204   T   T   T
  0.8497692217664921  0.3045155605100590  0.7742718186421967   T   T   T
  0.4984617562855319  0.4997562257202205  0.0055285938844782   T   T   T
  0.2448467186397751  0.7475530557413026  0.4887006992008192   T   T   T
  0.1195541928710515  0.7002394999506354  0.2209931189041859   T   T   T
  0.3958836077663107  0.7942628097942800  0.7607055641785946   T   T   T
  0.9306541227551679  0.3041535670741303  0.3901909732193383   T   T   T
  0.5575865414022178  0.1894035604143245  0.6278316832046897   T   T   T
  0.4628752897804048  0.3036498824215588  0.3781630710595794   T   T   T
  0.0485059994408943  0.2017865365819677  0.6770085374422689   T   T   T
  0.8188602796261288  0.4358875210577754  0.6398332246809957   T   T   T
  0.6888279592529603  0.0758928135099752  0.3735991068426384   T   T   T
  0.2884634097874146  0.1208563464692866  0.1025674751743474   T   T   T
  0.5727748728715240  0.3877756681870194  0.1465874671826428   T   T   T
  0.7222972374267962  0.3799232516490861  0.9172164947036918   T   T   T
  0.7990630025055433  0.1119553456110517  0.1127914494310616   T   T   T
  0.4257883417023939  0.8119586604757200  0.3713516947035008   T   T   T
  0.0896039639358895  0.6880185168093506  0.6216207021507397   T   T   T
  0.9377993366516798  0.7896557568393322  0.3531083432982242   T   T   T
  0.5445443755000436  0.6957543359877615  0.6205277820830046   T   T   T
  0.2958555969801416  0.9220019428344797  0.6195805385484049   T   T   T
  0.1846611948626765  0.5693311415743285  0.3560918607013062   T   T   T
  0.7188093178225857  0.9187993934789568  0.8485612581378277   T   T   T
  0.0074576957946805  0.8311224951590259  0.1045517174439574   T   T   T
  0.4804695620699098  0.6254544595958689  0.8789788131385076   T   T   T
  0.2295619923120814  0.8931525831229088  0.8871022074991037   T   T   T
  0.2440307433870786  0.5834767212600672  0.0765380680249953   T   T   T
