Sr Co O 
 1.0000000000000000
     0.0505572895271630    5.5065935512237676    0.0163378797622616
     9.7307486756862183    0.0920943393191345   -1.2183234578878273
    -3.6789363530802333   -2.8340208889283311   -8.8752122016571295
 Sr  Co  O  
   8   8  21
Selective dynamics
Direct
  0.5832900163808118  0.8423899331779080  0.1588300326541280   T   T   T
  0.9506192997418073  0.6571183764217213  0.9137790180999840   T   T   T
  0.8195116884459700  0.9404765789699020  0.6257261920484539   T   T   T
  0.7030142700817413  0.5772870698117922  0.3547622248879574   T   T   T
  0.0587690981773969  0.3691933474422436  0.1043592803228557   T   T   T
  0.3975979387680770  0.1598474077691937  0.8374456389229699   T   T   T
  0.2785182508049495  0.4472372938228197  0.6459882226078005   T   T   T
  0.1888039106302269  0.0436874503206366  0.3865251896201635   T   T   T
 -0.0235246957937759  0.0198753084789093  0.0047941305389329   T   T   T
  0.7233485143534181  0.2428986976081108  0.4868818050592781   T   T   T
  0.8478897375914488  0.2865170151920330  0.7594756948948116   T   T   T
  0.6053721867289745  0.1842859210436595  0.1754726773396923   T   T   T
  0.4983903965482555  0.5041865399343644 -0.0009098153619576   T   T   T
  0.2667570482517410  0.7509432609582425  0.5152434235198132   T   T   T
  0.3675017127372033  0.8173617111333341  0.8082060142411763   T   T   T
  0.1377743820014188  0.7116091170869999  0.2523877029237489   T   T   T
  0.7818821484103720  0.4270264389872799  0.5267632325585027   T   T   T
  0.0120918451632710  0.1777893795893201  0.6156467845157307   T   T   T
  0.6103747236585625  0.0940788493730807  0.3225126189252133   T   T   T
  0.5276293938915690  0.2101043022493046  0.6083581353619525   T   T   T
  0.8642562562829647  0.1480138149880843  0.8612089452090329   T   T   T
  0.6009657878580814  0.3542297511401396  0.1308173798632911   T   T   T
  0.1507462892557196  0.4020944888208669  0.8599697443094124   T   T   T
  0.2889325050263500  0.1304703977245362  0.0645061551991202   T   T   T
  0.9319156023996414  0.1489264808341788  0.1800166054669182   T   T   T
  0.6589874631208381  0.4153230704457060  0.8593222768264448   T   T   T
  0.3805790036551068  0.9148976363087347  0.6692276456702552   T   T   T
  0.1998419531610431  0.5742833398563439  0.3700228372624689   T   T   T
  0.9588532345649472  0.8183419761461153  0.3828220979665697   T   T   T
  0.4442073544880283  0.8083609717048084  0.4009869695635473   T   T   T
  0.1271642088024812  0.6932105740096346  0.6375750013004355   T   T   T
  0.4399875334991629  0.6664836684288907  0.8851708762183335   T   T   T
  0.1046531979139104  0.8522793931733145  0.1527147360526838   T   T   T
  0.6411947732164426  0.9333775876749463  0.9508089203216384   T   T   T
  0.8345273516945600  0.6109757064934517  0.1284594052848284   T   T   T
  0.3321467483414314  0.6031324750492941  0.1313755752756857   T   T   T
  0.0664287591406466  0.8856844992101405  0.8587467661609607   T   T   T
