Sr Co O 
 1.0000000000000000
     4.8944321246355083   -2.7038069046552113   -0.5195601259781792
    -4.9507308401637928   -2.7965919672241086    0.5105452918788407
     2.1015663675378273   -0.0179463923112866  -19.0504900346420207
 Sr  Co  O  
   8   8  20
Selective dynamics
Direct
  0.2650087109852011  0.6294129551509187  0.5449629540719361   T   T   T
  0.7346656253505008  0.3984221809829877  0.9548119797305507   T   T   T
  0.1833211352066763  0.9499774140827042  0.8242364943841295   T   T   T
  0.8162454050533222  0.0778809337386093  0.6754112298707977   T   T   T
  0.2689772672008465  0.7846933479818085  0.0879952507743436   T   T   T
  0.7311128026475250  0.2432502354485097  0.4119515331317924   T   T   T
  0.1384091474182876  0.8628742664670539  0.2983445508080441   T   T   T
  0.8621843617835743  0.1652749465425333  0.2015400271629373   T   T   T
 -0.0275224963414034  0.0885319980326429  0.0223733297764856   T   T   T
  0.5007672615503367  0.5140052775987615  0.7498630139033610   T   T   T
  0.5379268825820942  0.7579835995397206  0.8849838212656223   T   T   T
  0.4620047575573715  0.2698022137864530  0.6146826374492906   T   T   T
  0.0273609240658279 -0.0606412181117976  0.4774614954134928   T   T   T
  0.5003249078961532  0.5140984465927240  0.2499267506933811   T   T   T
  0.4150402946382575  0.5605372020759192  0.3800759692221416   T   T   T
  0.5852572200579074  0.4674723554475394  0.1197489568882946   T   T   T
  0.5730387720385871  0.4510792385551147  0.8395466406736983   T   T   T
  0.4265345870635029  0.5762297524457415  0.6603344560185144   T   T   T
  0.3800851092485220  0.1504318844248473  0.7098627457858719   T   T   T
  0.6230890212676365  0.8780285493478320  0.7897698317430614   T   T   T
  0.2490573022545068  0.7892920035586850  0.9314106578493807   T   T   T
  0.7501410174402419  0.2379601928910774  0.5678585203797175   T   T   T
  0.1246851968340728  0.0018234664459858  0.5719820899918927   T   T   T
  0.8747210379276360  1.0257032780162250  0.9278939932428316   T   T   T
  0.5758218453574369  0.3592866563742020  0.3165569762864006   T   T   T
  0.4248417220581027  0.6690053504128413  0.1832982250337010   T   T   T
  0.1582977838273170  0.4180317305493792  0.3085860282260348   T   T   T
  0.8422904848696062  0.6100637535400896  0.1912115221999705   T   T   T
  0.3470334468030918  0.1876488051592336  0.1851335607659639   T   T   T
  0.6534637216693817  0.8405299195057307  0.3147361202186789   T   T   T
  0.2533361206539959  0.7837844896771063  0.4315616508838907   T   T   T
  0.7463598680610976  0.2438715729915402  0.0682259070353842   T   T   T
  0.1603673057220001  0.2596514255264390  0.4374659043517639   T   T   T
  0.8399611740683800  0.7681187933250977  0.0622828941047731   T   T   T
  0.3261648998539167  0.3461266750701451  0.0463210369782285   T   T   T
  0.6736252151065540  0.6817564307169334  0.4535913399957607   T   T   T
