Sr Co O 
 1.0000000000000000
    -0.0286783794718288    5.4878589219777503    0.0338438241481581
     9.4829307965530116   -0.0537809912607990   -1.4325186336620761
    -3.2108612847154321   -2.7960049686829942   -8.6630958529189055
 Sr  Co  O  
   8   8  20
Selective dynamics
Direct
  0.5736647883655953  0.8359801534323823  0.1518864186497987   T   T   T
  0.9345397760644381  0.6412698345045835  0.8633118412691911   T   T   T
  0.7903042791501851  0.9369491266581585  0.6045540899094081   T   T   T
  0.6692857664978948  0.5819473021201542  0.4060899265286753   T   T   T
  0.0938822860223316  0.3656924357036976  0.1313368648159373   T   T   T
  0.4015235720775289  0.1490404350758946  0.8350552439833301   T   T   T
  0.2866796474050591  0.4566916457820953  0.6253211874355994   T   T   T
  0.1852352946560466  0.0443699382738166  0.3903017816128991   T   T   T
  0.0350893352532504  0.0059801547221925  0.0122796866137585   T   T   T
  0.7172817366421665  0.2474712766506761  0.4858740012306608   T   T   T
  0.8836949225932451  0.2833758747503973  0.7551006015457482   T   T   T
  0.6500565996820625  0.2060805804396523  0.2150061517599196   T   T   T
  0.4969934449488503  0.5035888193637341  0.0100338707106862   T   T   T
  0.2265704487729026  0.7511370852115141  0.5103103547625922   T   T   T
  0.3728337299219309  0.8002868904918617  0.7812684728391048   T   T   T
  0.1109811912617131  0.6989287772242452  0.2373650737111072   T   T   T
  0.7879510679696548  0.4251128725868837  0.6300189558321011   T   T   T
  0.6528426393509880  0.0774414968245526  0.3379514060967261   T   T   T
  0.0322349637962683  0.1918802915340638  0.5902327056736404   T   T   T
  0.4801216694333909  0.3166872274908157  0.3379809684660584   T   T   T
  0.5662441679100537  0.1915250634001970  0.6337633788103094   T   T   T
  0.9310676051547887  0.1307405275523337  0.8720472408760451   T   T   T
  0.5809218401304030  0.3200963386398022  0.0807352186138338   T   T   T
  0.1796180761004971  0.3984382533965132  0.8722922176405902   T   T   T
  0.9214428339543973  0.1259597856392752  0.1587886279292602   T   T   T
  0.3028466984403653  0.9289323766211023  0.6457688207993192   T   T   T
  0.1557324870658273  0.5692830246208874  0.3779381701633598   T   T   T
  0.5324323084364494  0.7035104367638449  0.6431597415038515   T   T   T
  0.9340235956900362  0.8021532569781374  0.3708174672155629   T   T   T
  0.4017127192944852  0.8094454636071040  0.3862262077870237   T   T   T
  0.0431680216881027  0.6985968073590076  0.6327914346335202   T   T   T
  0.4467571240817138  0.6500268726779485  0.8834601998538725   T   T   T
  0.0391291357803646  0.8479677664011763  0.1035410543772581   T   T   T
  0.8344855049956871  0.5748810304859653  0.0885969567800128   T   T   T
  0.3497950521469862  0.6014337041875935  0.1538679783844614   T   T   T
  0.2995056165731602  0.9347471328172433  0.9322256798447029   T   T   T
