Sr Co O 
 1.0000000000000000
     4.7528937827303981   -2.8071642409854607   -0.7802286260588147
    -4.7094323399719276   -2.7530332869177370    0.7346454321464818
     3.2582985840618814   -0.1540576430381129  -18.9792523289002055
 Sr  Co  O  
   8   8  20
Selective dynamics
Direct
  0.3024921943457500  0.7378578580010055  0.5847490788315424   T   T   T
  0.6862370800115637  0.2566648264036614  0.9342840780383005   T   T   T
  0.1426350207442655  0.8711976292525551  0.8025530344845514   T   T   T
  0.8699669666410508  0.1457571694090363  0.7052347890459154   T   T   T
  0.2540927205590066  0.7089104256518621  0.0753138783947147   T   T   T
  0.7496952590774913  0.3131540002514993  0.4265485272232170   T   T   T
  0.1196368216048319  0.8410674156878717  0.2896543724214024   T   T   T
  0.8491072049779219  0.1073122400749721  0.1730056046078318   T   T   T
 -0.0024893768970071 -0.0048700830217623  0.0032989605029898   T   T   T
  0.5169464099427339  0.5108136277082354  0.7503225423664703   T   T   T
  0.3669894680117160  0.5485576969301682  0.8825973214759227   T   T   T
  0.6456947390006478  0.4287710703999135  0.6151676085146780   T   T   T
 -0.0247529492720131 -0.0411066563571138  0.4967883459931088   T   T   T
  0.4743228603901249  0.4743723283921301  0.2545723687213646   T   T   T
  0.4526331168559693  0.6481333615459892  0.3895076057942262   T   T   T
  0.5604939907910453  0.4014032456687010  0.1182551087646746   T   T   T
  0.6133824470187652  0.4034137390936813  0.8220650905476720   T   T   T
  0.4153429651461175  0.6033056519467392  0.6794626191590322   T   T   T
  0.1445198724531893  0.3691958312256634  0.8028501673032167   T   T   T
  0.8882467430660377  0.6602026216610634  0.6940635112474867   T   T   T
  0.4454015245898831  0.1650064475553910  0.6822533361277227   T   T   T
  0.5909498431143070  0.8474512437734179  0.8203059810371726   T   T   T
  0.2187992316017900  0.7601610433425736  0.9502704288377892   T   T   T
  0.8865726602047627  0.2519333798598187  0.5593863449457378   T   T   T
  0.1413196276731200  0.1970459624375360  0.9267529713860669   T   T   T
  0.7068791013668296  0.6211958482883437  0.5427026144242416   T   T   T
  0.5768536471232196  0.3788899700763257  0.3248886150208496   T   T   T
  0.3915371224020558  0.6224073071868147  0.1922674799549659   T   T   T
  0.1762666232547411  0.4747188535971615  0.3311137794113511   T   T   T
  0.8255730358000141  0.5802027503631166  0.1871207982026920   T   T   T
  0.3476911828543081  0.1252240244759040  0.1849046932428862   T   T   T
  0.2941830405101661  0.8696559512508166  0.4600092955967605   T   T   T
  0.7358489818430866  0.1741552114096179  0.0540132080884320   T   T   T
  0.7552974913484433  0.6992051309026901  0.0553761612267642   T   T   T
  0.2617440904581677  0.2372415578866510  0.0673601441385566   T   T   T
  0.8088889862271951  0.8763916458479325  0.4113295688943452   T   T   T
