Sr Co O 
 1.0000000000000000
    -0.0106886437464932    5.4108477256145875   -0.0638687949290715
     9.7136519596390229   -0.0207672560821103   -1.2761271373681100
    -3.5445178919121894   -2.5927693593610508   -8.7758167441577335
 Sr  Co  O  
   8   8  21
Selective dynamics
Direct
  0.5530973613451661  0.8310230506646644  0.1598861384588516   T   T   T
  0.9292380106756546  0.6426978605860922  0.8999624017534193   T   T   T
  0.7713565048417629  0.9523401062396443  0.6104163371816513   T   T   T
  0.6302619406452622  0.5608453450470534  0.3669460275862383   T   T   T
  0.0326256077374994  0.3621176030382242  0.1013825260418505   T   T   T
  0.3970575457647744  0.1638529609031971  0.8327359103968482   T   T   T
  0.3153022217345775  0.4328264923417934  0.6305414042380270   T   T   T
  0.1640127858879667  0.0431280835462728  0.3717194803395806   T   T   T
 -0.0041405850777566  0.0163596270200431 -0.0202071914931126   T   T   T
  0.7130855245710475  0.2404451341338149  0.4785618611196065   T   T   T
  0.8622042204597279  0.2971647872935576  0.7447296615760584   T   T   T
  0.6255307100484897  0.1945847240744787  0.2092908512514444   T   T   T
  0.4787455151368032  0.4989740500669285 -0.0034215212506777   T   T   T
  0.2206285247753831  0.7473188512791751  0.5178034912577445   T   T   T
  0.4167846026169662  0.8189814611747490  0.8085300445812135   T   T   T
  0.0925345951168452  0.6994334213149282  0.2520341366954039   T   T   T
  0.8025328451241168  0.4199513646684698  0.6078200937920852   T   T   T
  0.6621169220349908  0.0715713220162335  0.3312993748246406   T   T   T
  0.0131510603160850  0.1868347173563396  0.5954553642313721   T   T   T
  0.4569435344540898  0.2997340612742016  0.3433473506674843   T   T   T
  0.5487159226149798  0.1894573610171072  0.6140747425522145   T   T   T
  0.9236159718708759  0.1571754527119353  0.8615652748722378   T   T   T
  0.5385020665885331  0.3116921035341441  0.0941093652787595   T   T   T
  0.1752569087771141  0.4039561542441659  0.8561244467965015   T   T   T
  0.9149854022776037  0.1257844140793712  0.1459358159354906   T   T   T
  0.6735758255119690  0.4131129979835274  0.8630844541134075   T   T   T
  0.2657663276414098  0.9145364492477742  0.6681336342179076   T   T   T
  0.1383099626004787  0.5684181357304033  0.3813750342288757   T   T   T
  0.9302809317432454  0.8039692052451027  0.3978995831973376   T   T   T
  0.4008171970619017  0.8047128560112412  0.3841209095941746   T   T   T
  0.4733449785725869  0.6808757863218124  0.6403850207253173   T   T   T
  0.4064326149374131  0.6806869394614881  0.8989809579294535   T   T   T
  0.0439215506446935  0.8332906628455528  0.1463431804642474   T   T   T
  0.7762156835711529  0.8773164805526710  0.8470129866855420   T   T   T
  0.7820612785339607  0.5916822525054977  0.1388540871421138   T   T   T
  0.2886567810572251  0.5866457710907482  0.1357825425803590   T   T   T
  0.3254717630153418  0.9665024544927651  0.9633848921904621   T   T   T
