Sr Co O 
 1.0000000000000000
     0.1096483243813314    5.4390681293336680    0.0756516312645197
    -9.7501842612980418   -0.1776740475324555    1.2043065166469427
    -1.2490346375594870    0.1296119759179996    9.5077602553172298
 Sr  Co  O  
   8   8  20
Selective dynamics
Direct
 -0.0176773449509171  0.7362691231233809  0.8497206292534192   T   T   T
 -0.0046585344665576  0.2683814421468320  0.1401712798059182   T   T   T
 -0.0343214640618612  0.8718861432526166  0.3670918265244515   T   T   T
  0.0157409173160950  0.0999425236086395  0.6492223310412254   T   T   T
  0.5032661961702956  0.1805020394207299  0.9007986894459891   T   T   T
  0.4748814670924954  0.8074419923247030  0.1123052309322659   T   T   T
  0.4555116407243745  0.3620422523198408  0.3727651732988543   T   T   T
  0.4955419278072481  0.6486641526045674  0.6217155139938783   T   T   T
 -0.0161319959034989 -0.0119308234125298  0.0089580995342057   T   T   T
 -0.0437174375563619  0.4892110663963405  0.4962387332244302   T   T   T
 -0.0310244508586456  0.5783324810739093  0.2043552658167112   T   T   T
  0.0823455064060208  0.4036213948702786  0.7704228276145115   T   T   T
  0.4967024189970882  0.5187768444294560 -0.0004052820381473   T   T   T
  0.4690637144073171 -0.0104616002625013  0.5041315030352924   T   T   T
  0.4703943625323484  0.0774818775503150  0.2427131295621992   T   T   T
  0.4958184980828658  0.9108622923048110  0.7630770425647089   T   T   T
 -0.0535610445390750  0.3990421754789057  0.3455207909022500   T   T   T
  0.9587027186538126  0.5719087272086115  0.6573740504970972   T   T   T
  0.1895546458179681  0.3707895369241546  0.5856740687695103   T   T   T
  0.7445434449693188  0.6111105472530066  0.3999681538526448   T   T   T
 -0.0235232586676917  0.7685075548912638  0.1334089398914157   T   T   T
 -0.0322071962595599  0.2361508465887090  0.8777162133274290   T   T   T
  0.3254199451088248  0.5484628417453721  0.1600833930792618   T   T   T
  0.3850904452833432  0.4393728794251496  0.8524294402403748   T   T   T
  0.8370525101835475  0.5153846579268527  0.0405262250321967   T   T   T
  0.4632508844683758  0.8862657883587783  0.3637205917189811   T   T   T
  0.5128503699378484  0.1035329693753508  0.6355157896421415   T   T   T
  0.2504618853022514  0.8672516104582035  0.6371574733136184   T   T   T
  0.7247673998546903  0.8844003153895479  0.6090452713804658   T   T   T
  0.2438887131377994  0.1093273337683648  0.3904796965143215   T   T   T
  0.5072045022910961  0.2659678643375864  0.1536557283319121   T   T   T
  0.4910676358519300  0.7132855246861320  0.8707103397343460   T   T   T
  0.7540342619697273  0.0342308902983501  0.1496677757418109   T   T   T
  0.2387680235134746  0.9604351765547833  0.8767541802561296   T   T   T
  0.7453952160048642  0.9577663485445514  0.8837387820389507   T   T   T
  0.2265032057825783  0.0347832907571320  0.1181708160437540   T   T   T
