Sr Co O 
 1.0000000000000000
     0.0050732260306020    5.4481513955093099    0.0351103804724656
    -9.5985938296494737   -0.0100057098965290    1.3101003898520254
    -1.3807670649187285    0.0587475734720557    9.4789367352447016
 Sr  Co  O  
   8   8  21
Selective dynamics
Direct
  0.0103908495993200  0.7355280946452393  0.8532924831274651   T   T   T
 -0.0118188009988420  0.2802556888877685  0.1348517987148753   T   T   T
  0.0312876425851242  0.8569795003820712  0.3955233099330821   T   T   T
  0.0293884311284211  0.1198422026473405  0.6386185950931064   T   T   T
  0.5161718114775696  0.2097507230680530  0.8504823296012605   T   T   T
  0.4912017677034657  0.8066144742757687  0.1184919243824290   T   T   T
  0.4887996719064313  0.3634349730592185  0.3937803265061289   T   T   T
  0.5151410620065151  0.6239622678985075  0.6415328741876881   T   T   T
 -0.0072679281957278 -0.0006013952297310  0.0043188324390293   T   T   T
  0.0196194531368214  0.4913109655026776  0.4998885346654462   T   T   T
 -0.0015555330718088  0.5859570731444026  0.2173515790098797   T   T   T
 -0.0107727036023154  0.4118465722776828  0.7650523580740517   T   T   T
  0.5117310771528052  0.5051991220143853  0.0147789855114882   T   T   T
  0.5035260579320945 -0.0096916477329626  0.5004612412669731   T   T   T
  0.4736989107967920  0.0910292116860915  0.2221276151616982   T   T   T
  0.5209652445659188  0.9130195043311535  0.7638307716269969   T   T   T
 -0.0023454948315989  0.3970158994208514  0.3520870447366513   T   T   T
  0.0025548354691490  0.6042855580284373  0.6416393481848041   T   T   T
  0.2214029835718663  0.6205624077960601  0.3672695126097302   T   T   T
  0.7650851699655927  0.3832264169693462  0.6030655235949183   T   T   T
  0.2578915622956252  0.3809705603540426  0.6434621166595050   T   T   T
 -0.0220684079535438  0.7781688910737645  0.1296072664664726   T   T   T
  0.0388063107899279  0.2353504959952764  0.8847103585200400   T   T   T
  0.1834416266632503  0.5285808588359346  0.0561724188756567   T   T   T
  0.7068340902403256  0.4508543396237970  0.8786452321979609   T   T   T
  0.6737735704974047  0.5529301756903586  0.1703094931481658   T   T   T
  0.5474114236390448  0.9017309668317001  0.3531870735527438   T   T   T
  0.5187623029302719  0.1055068566278423  0.6283262688088757   T   T   T
  0.2778419618994396  0.8713453502090822  0.6344432210259089   T   T   T
  0.7493090889567013  0.8829606682147367  0.6145133842097821   T   T   T
  0.2776173172628815  0.1121618261420348  0.3853205970154160   T   T   T
  0.4936880645492356  0.2881357885151870  0.1519897647466917   T   T   T
  0.5239777885068476  0.7156530345984786  0.8724967459054457   T   T   T
  0.6991105648500220  0.0634385880900072  0.0908884518960457   T   T   T
  0.2824573261434092  0.9646388334932003  0.8868377727210882   T   T   T
  0.7926188466981443  0.9712975173188269  0.8575373649400284   T   T   T
  0.1783218412574064  0.0267479475320070  0.1537071672487397   T   T   T
