Sr Co O 
 1.0000000000000000
     0.0223812836772505    5.6310555718062538    0.0806459916420700
    -9.5603051765437428   -0.0346523431603212    1.5794249888068757
    -1.6164607288653841    0.1358336967348577    9.3930177037613571
 Sr  Co  O  
   8   8  20
Selective dynamics
Direct
  0.0105530736270771  0.7281634411901742  0.8356095233367380   T   T   T
 -0.0181547181729869  0.2662893848266234  0.1271870661080487   T   T   T
  0.0024216649386244  0.8535068011591875  0.4129287020698098   T   T   T
 -0.0077278788133239  0.1448022572914336  0.6110937832076648   T   T   T
  0.4885578183649257  0.2016772348719728  0.8264443626412732   T   T   T
  0.5150279403209076  0.8128720864950034  0.1395159494176506   T   T   T
  0.4946408674913399  0.4008873133664061  0.3850233020537301   T   T   T
  0.4890062046215614  0.6013666184794164  0.6184414602628358   T   T   T
  0.0105846101347285 -0.0009247489270462 -0.0202268288933936   T   T   T
 -0.0051709209478616  0.5074453916548712  0.4943690492759587   T   T   T
  0.0020833037829973  0.6129825021052004  0.2319272877150379   T   T   T
  0.0032808846173261  0.4055280488941793  0.7710564784983120   T   T   T
  0.5115607679262222  0.4808944526248053 -0.0190034938351401   T   T   T
  0.4807332572727920 -0.0008197873708248  0.5241431160860756   T   T   T
  0.4556303397292494  0.1105087014329709  0.2253641223894502   T   T   T
  0.5089001653499095  0.8767267466543179  0.7877123150820884   T   T   T
 -0.0115233359566850  0.4137976257809813  0.3309886347622752   T   T   T
  0.0111067827839640  0.6011852418912805  0.6371468530490785   T   T   T
  0.2444203769855433  0.6368421933665416  0.3671748288503017   T   T   T
  0.7653482896824636  0.3887806436474543  0.6326407041673870   T   T   T
  0.2144125435419040  0.3745422963265054  0.6161166010213015   T   T   T
  0.7564999404416277  0.6380303378899675  0.3754142263796675   T   T   T
  0.0082547258901295  0.7813268737430079  0.0844400460198576   T   T   T
 -0.0536878304207602  0.2020560288858092  0.8883418234852403   T   T   T
  0.8203323470588973  0.4711316421499122  0.9134105617620956   T   T   T
  0.2838794838221299  0.4205779131810620  0.8788032266714124   T   T   T
  0.5730838993552677  0.1619499140477990  0.5491655583841623   T   T   T
  0.3076882981384865  0.8351732023677537  0.6176543614050041   T   T   T
  0.7446998894698809  0.8914543543986387  0.6231224165763618   T   T   T
  0.2375018152536772  0.0874982391068756  0.3909222334688163   T   T   T
  0.5120641708796067  0.3198793954210341  0.1616829058113508   T   T   T
  0.4705802278677672  0.6799232756724840  0.9412512323786095   T   T   T
  0.7315372022251632  0.0184762093391973  0.2220348901257891   T   T   T
  0.2387914785931071  0.9788180827692426  0.8216795973896349   T   T   T
  0.7205567907854946  0.9607447882266172  0.8916454057707288   T   T   T
  0.2565255085619875  0.0369055386124204  0.1060774633431342   T   T   T
