Sr Co O 
 1.0000000000000000
     0.0720020201071127    5.5108973748488479   -0.0042089784600655
    -9.6791323736919157   -0.1130980523905105    1.2893121594770429
    -1.3510703859078375   -0.0097565146940364    9.6006318851244767
 Sr  Co  O  
   8   8  20
Selective dynamics
Direct
  0.0184373942586583  0.7637411278483621  0.8331804691550058   T   T   T
 -0.0344089174182129  0.2683284148151315  0.1545637866713146   T   T   T
 -0.0173483306001050  0.8882806757902527  0.3815608530478268   T   T   T
  0.0109772987616960  0.1181905906529525  0.6148489664193215   T   T   T
  0.5290661026253143  0.2200410674206010  0.8346140358443475   T   T   T
  0.4846363487286269  0.8380994624562563  0.0989285530280375   T   T   T
  0.5157973338399733  0.3472258912877841  0.4261689225768386   T   T   T
  0.5238881379476013  0.6592275630238226  0.6082620660478542   T   T   T
  0.0078103226265604  0.0348617084066709 -0.0203503106868114   T   T   T
  0.0220892302591258  0.5046390757065607  0.5176245237214498   T   T   T
 -0.0791173809779713  0.5851569032739449  0.2350300532370294   T   T   T
  0.0149922206456290  0.4109234317377183  0.7757844929100057   T   T   T
  0.6017786773336948  0.5464549144497037 -0.0164802759393358   T   T   T
  0.4965388602304145  0.0014370383002671  0.4901637200006111   T   T   T
  0.4674892585343883  0.0827785420649710  0.2333554492219289   T   T   T
  0.5136537084157849  0.9261849031617168  0.7534466824211744   T   T   T
 -0.0083029955733348  0.6009108471583015  0.6658270542818571   T   T   T
  0.1004093924250321  0.4384947788693090  0.3536968006570291   T   T   T
  0.8102392319991234  0.3467127948616103  0.6274532715700573   T   T   T
  0.2817894302596994  0.4158542610252303  0.6354778871468391   T   T   T
  0.7970242036332545  0.6261262251356073  0.4055303021183085   T   T   T
 -0.0059664169198442  0.7483001372315010  0.1071882579372484   T   T   T
  0.0985459057749329  0.2437842726240561  0.8997143368503661   T   T   T
  0.7637647716972137  0.4241417553179799  0.9051999270538728   T   T   T
  0.6702789690507797  0.4717965616863513  0.1757905649815330   T   T   T
  0.4845786688003896  0.8777945811596136  0.3661902377521373   T   T   T
  0.4998974849592264  0.1115813007797743  0.6234445807756676   T   T   T
  0.7203234112076470  0.1249187454444616  0.3597329735268520   T   T   T
  0.2749723281208112  0.8844484295808835  0.6216933222210206   T   T   T
  0.7384607030182874  0.8939239602409814  0.6118660199525362   T   T   T
  0.2604484976621216  0.1211414013902106  0.3741808477122415   T   T   T
  0.5033089780896884  0.7188316820417877  0.8730980060411396   T   T   T
  0.6811637121846854  0.0845395251684860  0.0891956260152400   T   T   T
  0.2779323409503026  0.9713151173999980  0.8772792346879926   T   T   T
  0.7864194971527180  0.9851426494179359  0.8554027605282795   T   T   T
  0.1824318443859486  0.0286696874352934  0.1453358840997170   T   T   T
