Sr Co O 
 1.0000000000000000
     4.8278039084171329   -2.6890401350968052   -0.6803317585393776
    -4.8690779235445882   -2.7471046664781538    0.6522213363570639
     2.8115734615260588   -0.0888926223770804  -18.9335772451408531
 Sr  Co  O  
   8   8  21
Selective dynamics
Direct
  0.2440919870251378  0.6873436381944821  0.5715071256529739   T   T   T
  0.7207215033747244  0.3401391492966012  0.9458040039467777   T   T   T
  0.1443183437396827  0.9140284763557924  0.8190332040967119   T   T   T
  0.8384414502471883  0.1244614869343592  0.6892482459782050   T   T   T
  0.3109492875379248  0.7494511924792185  0.0667080145560237   T   T   T
  0.6998249865940280  0.2340692718444842  0.4283764472335558   T   T   T
  0.1849633579985299  0.8706661476987444  0.2937611003188267   T   T   T
  0.9105666262205624  0.1446803480660128  0.1731119793108705   T   T   T
  0.0251121542643283  0.0434606028168075 -0.0004982348859395   T   T   T
  0.5270106008128209  0.5215176081647508  0.7459872711703949   T   T   T
  0.4500346665259834  0.6393266144915548  0.8852380916597330   T   T   T
  0.5183224091159067  0.3574569489269596  0.6159130734640971   T   T   T
  0.0050988254001283 -0.0490506971758639  0.4866295273569656   T   T   T
  0.5535345071312098  0.5259957470967818  0.2524369716151633   T   T   T
  0.4207357006190128  0.5545007698550868  0.3912182435721391   T   T   T
  0.6120372999718782  0.4465885802406880  0.1191920404630124   T   T   T
  0.6367647074373896  0.4396127589663163  0.8180066618341085   T   T   T
  0.3671924943510124  0.5863357250039301  0.6779600364779644   T   T   T
  0.8345030405193190  0.6064119104748622  0.6698578038838428   T   T   T
  0.3435578315320876  0.1458038266821153  0.7063185699232251   T   T   T
  0.6130067432758283  0.8633133804262274  0.8051655921759832   T   T   T
  0.2517485909346632  0.8277285231032694  0.9311768596270763   T   T   T
  0.7127803877511412  0.1973557230237843  0.5577262852119335   T   T   T
  0.1789710830151021  0.3067306575327447  0.9235653833719910   T   T   T
  0.1803575446220451  0.1307773659495061  0.5683871635044206   T   T   T
  0.7309163634874037  0.8038709255200959  0.9455104802614914   T   T   T
  0.6343379068895322  0.3949112344040412  0.3203093698260305   T   T   T
  0.4359330257563541  0.6478818106798748  0.1896241973217970   T   T   T
  0.8898690537331150  0.6169839043699078  0.1857574222333320   T   T   T
  0.3911188583022727  0.1794137809324619  0.1908580715368826   T   T   T
  0.5984862190487706  0.8267467385138003  0.3244993203738623   T   T   T
  0.1875039433632713  0.7149634223421729  0.4429718241189551   T   T   T
  0.7734486931713649  0.2292389446486464  0.0636163798789156   T   T   T
  0.1410519868650892  0.1852951684404805  0.4128952272681146   T   T   T
  0.8531408860271520  0.7558055526133800  0.0666227157559103   T   T   T
  0.3157049180921549  0.2878100289653803  0.0577704843164214   T   T   T
  0.6428418214060097  0.6673730490156053  0.4724330376986415   T   T   T
