Sr Co O 
 1.0000000000000000
    -4.6919731693235134    2.7892879382397511    0.8197292123101342
    -4.6558764031929130   -8.3034303902301456    0.7011446995092555
     3.0362828545818479    2.8663891979345619    8.7022203962396354
 Sr  Co  O  
   8   8  21
Selective dynamics
Direct
 -0.0206309037338690  0.2926411699611891  0.8427844238239242   T   T   T
  0.9787569354328883  0.6987259592418213  0.1275152717240336   T   T   T
  0.0032807052062679  0.1232822530539058  0.4055292490553123   T   T   T
  0.9992196691984041  0.8827074455478834  0.6270370898209251   T   T   T
  0.5051934818983881  0.7824372664997936  0.8462440977896255   T   T   T
  0.5150096329294531  0.1987098830077045  0.1292742742955538   T   T   T
  0.5124415895003015  0.6546700507606310  0.4003453404274597   T   T   T
  0.4876169408561887  0.3788594605686765  0.6168809639677714   T   T   T
 -0.0207728401261971  0.0001639657326124 -0.0090291903570160   T   T   T
  0.4966107331323381  0.0098129615485368  0.5047232714120067   T   T   T
  0.5096973727128732  0.9018161159720980  0.2380275826196050   T   T   T
  0.4835797896327680  0.0969985374918785  0.7768278920195484   T   T   T
  0.4960780763371042  0.5004017669226634 -0.0167602329911215   T   T   T
  0.0382795265485710  0.5120419551220586  0.4875832066736861   T   T   T
  0.0188888556481084  0.3929953951689446  0.2258555667056054   T   T   T
  0.9982482076650768  0.5897357343333542  0.7570014542750357   T   T   T
  0.2695237670853025  0.8831146089247105  0.3691146135839710   T   T   T
  0.7015437334899081  0.1448013622782451  0.6390783880913220   T   T   T
  0.7486990210191306  0.8899009300518788  0.3915051652685455   T   T   T
  0.2501935574275095  0.1217824346012878  0.6373391916309797   T   T   T
  0.4970581491269985  0.9001385823132687  0.6336010882173482   T   T   T
  0.4998703969430563  0.1156406899257881  0.3679848307878582   T   T   T
  0.7002042458766193  0.9373124124540494  0.1010094880280103   T   T   T
  0.2766398810333004  0.0296002373130046  0.9048822198890004   T   T   T
  0.4851357444373164  0.6812628593256161  0.1392625430925306   T   T   T
  0.4343022616668748  0.2994453095744897  0.9151907867012566   T   T   T
  0.7606967130952109  0.0626424792186534  0.8728681545588972   T   T   T
  0.2501950109005339  0.6300286773834888  0.6329003317358073   T   T   T
  0.2764362589076116  0.3963848740224460  0.3527468832924373   T   T   T
  0.7876614943929449  0.6245360628216613  0.6104160270084352   T   T   T
  0.0086745264947358  0.3900564742288557  0.6029099070176011   T   T   T
  0.9985688372857150  0.5958964433268452  0.3436080858426202   T   T   T
  0.7278748229224961  0.5330562118955698  0.8491654843931179   T   T   T
  0.0096856120714814  0.1860166187076929  0.1620339816348453   T   T   T
  1.0103976420280265  0.7928225469231057  0.8947529799947407   T   T   T
  0.2128866270217187  0.5387854166794462  0.8853553182584190   T   T   T
  0.8027543955979745  0.4222748503152418  0.1044344584983186   T   T   T
