Sr Co O 
 1.0000000000000000
     4.8745185552842614   -2.7109944650780795   -0.7103952169264766
    -4.8494374224752343   -2.6859288739523004    0.6839525302323333
     2.8563759197076699   -0.0899289344878180  -18.8565481042339727
 Sr  Co  O  
   8   8  21
Selective dynamics
Direct
  0.2975099989549871  0.7480813661046555  0.5701565942001143   T   T   T
  0.6783885554779344  0.2516037033361048  0.9406119827123101   T   T   T
  0.1054580504047754  0.8397408529314384  0.8155499606939453   T   T   T
  0.8853554473180388  0.1646896022455773  0.6868350970751046   T   T   T
  0.2494179786109763  0.6634473900052540  0.0663340645035739   T   T   T
  0.7359308119562605  0.3392293051670561  0.4420572969579462   T   T   T
  0.1621320078648987  0.8716544650336386  0.3064693718602868   T   T   T
  0.8458104212824352  0.0794081340122124  0.1780834168814201   T   T   T
 -0.0384310643680157 -0.0517812701982668 -0.0013501529758770   T   T   T
  0.4992549595302377  0.5057711925399179  0.7492682375695323   T   T   T
  0.3781115201998352  0.5303889720518445  0.8839362943082752   T   T   T
  0.6109256088480313  0.4732999807125767  0.6164037636046663   T   T   T
  0.0432552354501795  0.0584423706428218  0.5010518936755698   T   T   T
  0.5288465585602572  0.5005906057836723  0.2488152496917211   T   T   T
  0.4788155940946384  0.6540248815190615  0.3913859677238525   T   T   T
  0.5472139292659151  0.3633242638222934  0.1163082108126548   T   T   T
  0.5923033978710754  0.3534870566220905  0.8061661128061983   T   T   T
  0.4037687306330950  0.6552838090161048  0.6910295890442203   T   T   T
  0.1417316043873519  0.3496680935568391  0.8041298562460982   T   T   T
  0.8588852400262773  0.6669534060160519  0.6942571074104059   T   T   T
  0.1959338040019133  0.7333829138086051  0.9277028004886024   T   T   T
  0.7823104605160396  0.2588551137839022  0.5743039048310209   T   T   T
  0.2130413017734736  0.2449478425799145  0.9437499191638242   T   T   T
  0.7802155353346739  0.7459184018543041  0.5509896128562941   T   T   T
  0.2707536234683161  0.1987301668172793  0.5806611267187567   T   T   T
  0.7148945298607298  0.7974801830819770  0.9190624344424715   T   T   T
  0.6133776103396824  0.4127723178903091  0.3247587702120489   T   T   T
  0.3575796731079763  0.5567069159360027  0.1851022855503568   T   T   T
  0.8467990103910553  0.6044922776540178  0.1763774707284570   T   T   T
  0.3887948641823044  0.1338648448175952  0.1961522465006747   T   T   T
  0.6070367183413102  0.8445298631563518  0.3059164010193083   T   T   T
  0.2511848264182273  0.8117106106947944  0.4323357258042385   T   T   T
  0.7468719929550691  0.1772136024423686  0.0616334765769366   T   T   T
  0.3038749988108370  0.3976470798032302  0.4600455855622880   T   T   T
  0.7046057565310223  0.6351198996063655  0.0485607541349760   T   T   T
  0.2229232559705852  0.1102502241235445  0.0703934073397214   T   T   T
  0.8351174247475516  0.9310697932650284  0.4231041724424837   T   T   T
