Sr Co O 
 1.0000000000000000
     4.7610093257501704   -2.7456352991640278   -0.7602801681427763
     4.8259092865551194    8.2892416843385206   -0.7556240469429860
    -1.5971392041445576   -0.0100559970684001    9.5263512990887573
 Sr  Co  O  
   8   8  20
Selective dynamics
Direct
  0.4343403889338074  0.1196921685387727  0.8600817193035475   T   T   T
  0.0994042500846589  0.3580825472197001  0.1627804026360714   T   T   T
  0.2019079925454702  0.0554010641115567  0.3705891034053151   T   T   T
  0.2796592499668381  0.4383650418546983  0.6074493028152309   T   T   T
  0.9424145913273678  0.6488813835642229  0.8509500340905773   T   T   T
  0.5499723018687457  0.8600088059665251  0.1364283361159111   T   T   T
  0.6805545174184120  0.5597493300487277  0.3744683808635684   T   T   T
  0.7849700671534721  0.9255581917857645  0.5874799585534152   T   T   T
 -0.0124454717477098 -0.0132895503527335 -0.0252336220971490   T   T   T
  0.7433925560625531  0.2548924893076948  0.5184731329905433   T   T   T
  0.6216298205813292  0.2205137565454802  0.2541256286618783   T   T   T
  0.8773323331018855  0.3081178844616331  0.8097500721177675   T   T   T
  0.4818667301946052  0.4854304851971461 -0.0155670121163816   T   T   T
  0.2144893317469132  0.7532308829181774  0.4813034884253360   T   T   T
  0.1208957279410158  0.7108922628371372  0.2184697424598047   T   T   T
  0.3694128740921264  0.7903443208863797  0.7519584169759352   T   T   T
  0.9065202625248999  0.3209534011065648  0.3905929668360090   T   T   T
  0.6556210589006967  0.1757164681430222  0.6626343647660873   T   T   T
  0.4135340029365668  0.2974372415484039  0.3957138834437451   T   T   T
  0.8002460517758252  0.4237761221731027  0.6531121981966013   T   T   T
  0.7345868738713194  0.0800176862651978  0.3866171021186124   T   T   T
  0.3816646355847667  0.1041618367303025  0.1281563715267804   T   T   T
  0.2307898692777081  0.3519064156317082  0.8430877353821432   T   T   T
  0.5707265199441655  0.3760524554600388  0.1504727113233829   T   T   T
  0.9037762404302018  0.1671737522422831  0.9450369293677440   T   T   T
  0.7997828550477986  0.4511213261232650  0.9530202588333617   T   T   T
  0.4168147796371285  0.8197406304471572  0.3773733410089073   T   T   T
  0.0657203837263948  0.6860418466759344  0.6126596694527613   T   T   T
  0.8949762831163658  0.7721026162392115  0.3254953210285877   T   T   T
  0.2678534953935404  0.9252225597160219  0.6122034495702863   T   T   T
  0.2054165618406101  0.5756100487185167  0.3573053219460749   T   T   T
  0.6917660132905834  0.8815512455901396  0.8243378684068166   T   T   T
  0.0114071539267814  0.8749769701195808  0.1199986078889916   T   T   T
  0.4596436496953974  0.6320375069014192  0.8351788943669295   T   T   T
  0.2175317724056918  0.8958801792416036  0.8868314173429667   T   T   T
  0.3048237823670599  0.6236484296396011  0.0940643034291039   T   T   T
