Sr Co O 
 1.0000000000000000
    -4.7674409861876130    2.7935178210360272    0.7065550935546573
    -4.7815948015222993   -8.4313102910547215    0.3685517980555938
     3.4269474754662186    3.1114946473355132    9.1355136534974850
 Sr  Co  O  
   8   8  20
Selective dynamics
Direct
 -0.0048250796805006  0.3041697352633042  0.8254955604905303   T   T   T
  1.0365778903115550  0.6748841856030365  0.1630891242000469   T   T   T
 -0.0378124895651257  0.1559014514270213  0.4044600737814004   T   T   T
  0.9817421359364074  0.8772589678053512  0.6266182177928512   T   T   T
  0.4556617700042453  0.8158388430616025  0.8245950902326099   T   T   T
  0.4573270798632980  0.2141918129012217  0.1719685200869460   T   T   T
  0.4659870118017106  0.6154977171516649  0.4155008549381031   T   T   T
  0.4682076193472048  0.3735449883542114  0.5983167645929529   T   T   T
 -0.0005221986380301 -0.0222300115812676  0.0470014962237667   T   T   T
  0.4732038931884824 -0.0076148544556801  0.4838243954375004   T   T   T
  0.5232794946392921  0.9120115672276177  0.2110361774282962   T   T   T
  0.4696220080034912  0.1131621088508867  0.7405840108547908   T   T   T
  0.4919277890429226  0.4272051242048415  0.0216554489206982   T   T   T
 -0.0352590183949342  0.5109745437059502  0.5089044057927422   T   T   T
 -0.0193813648168434  0.4001872716475368  0.2444869905263118   T   T   T
  0.9560642031672117  0.6201420263520816  0.7720277972664310   T   T   T
  0.3944024619233630  0.8148199877147759  0.3210770556777498   T   T   T
  0.7127809396326709  0.1188300844243653  0.6165653065167965   T   T   T
  0.2104570810583533  0.1150693995082534  0.5958130789759492   T   T   T
  0.4833099532217596  0.8945788009019843  0.6146406655464445   T   T   T
  0.4891792657539558  0.1059651854733523  0.3696617829936450   T   T   T
  0.8491120872518644  0.9083264791460317  0.1842449030299660   T   T   T
  0.2888567223768516  0.0860333947496971  0.8682914483192494   T   T   T
  0.4994451356731663  0.3301277019464298  0.8298253749382983   T   T   T
  0.3374736465317530  0.9354496592617401  0.0726677577965984   T   T   T
  0.7367234791079247  0.3824380664816611  0.3709618213130952   T   T   T
  0.2016989552594397  0.6401201026940727  0.6331045784139361   T   T   T
  0.1938183082035156  0.3814363404739075  0.3878495240540774   T   T   T
  0.7271195215778878  0.6289353703441640  0.6345371042803774   T   T   T
 -0.0437949287240622  0.4081240356840678  0.6359017223185017   T   T   T
  0.9675439484761327  0.6160542288066996  0.3826186771634331   T   T   T
  0.2711610292332146  0.4479701758215879  0.1552475540400529   T   T   T
  1.1091253315423053  0.5825512497984325  0.9068257472953365   T   T   T
 -0.0345928909784024  0.1774554522449228  0.1433738303087949   T   T   T
  0.9150059565539721  0.8398264200860245  0.8674918324178500   T   T   T
  0.7915234716866311  0.4339124724627069  0.0970351332075810   T   T   T
