Sr Co O 
 1.0000000000000000
    -4.7309695196886130    2.8069099056077871    0.8790142181925714
    -4.6517927644611738   -8.4108292964118352    0.5460030704180742
     3.0299928146137214    3.1025523594039441    8.9102507615111115
 Sr  Co  O  
   8   8  20
Selective dynamics
Direct
 -0.0299172074293830  0.2847834950367010  0.8714315181591694   T   T   T
  0.9939277239342350  0.7279641897173383  0.1628657795548731   T   T   T
 -0.0077828157826655  0.0973976020662237  0.3933620403161034   T   T   T
  0.9711467728451589  0.8619728710338906  0.6071783813134568   T   T   T
  0.4971829943783192  0.7998001808343006  0.9086190430365179   T   T   T
  0.4968482440241281  0.2101794861589369  0.1878635687307222   T   T   T
  0.4975151544633143  0.6362706643403059  0.3566845737761632   T   T   T
  0.5277678927110556  0.3668015535413557  0.6236757128638658   T   T   T
 -0.0126104341273482  0.0066564665541848  0.0293657242343512   T   T   T
  0.4846813910788199 -0.0006172670046070  0.5240598374201010   T   T   T
  0.4906143192935344  0.9174965372094501  0.2566762382445924   T   T   T
  0.4966205903753664  0.0699853615735933  0.7783064969353013   T   T   T
  0.4860287208219435  0.5050612013237427  0.0019511413992646   T   T   T
  0.0210822159131011  0.4878049734479914  0.4721365478287550   T   T   T
 -0.0092316794190727  0.3988644896605935  0.1972707516344098   T   T   T
  0.9904862738094081  0.6080266297681409  0.8016256834322363   T   T   T
  0.2553560934121254  0.8770201819817378  0.3907734532737218   T   T   T
  0.7288347886012450  0.1268269655105296  0.6464476667480988   T   T   T
  0.7159199996917298  0.8841728865366653  0.3858369827057201   T   T   T
  0.4878205849017495  0.8668489935569470  0.6323395660551671   T   T   T
  0.4707853666048573  0.1164891246615428  0.4064030716065293   T   T   T
  0.7495913525269480  0.9720546290311692  0.1534066159083244   T   T   T
  0.2559615269733175  0.1208574578362026  0.6803290222592535   T   T   T
  0.5216839868359726  0.7151908090593670  0.1259345267208311   T   T   T
  0.6703879059779949  0.0637725876532008  0.9209132814618025   T   T   T
  0.2486736715816776  0.9579985218526563  0.1405008221435150   T   T   T
  0.8632590069728269  0.3191526131328893  0.3370281020447405   T   T   T
  0.3314161603632014  0.4398217902654001  0.4462192337791602   T   T   T
  0.8261127171858028  0.5889841115033549  0.6320612229116621   T   T   T
  0.9656205691736259  0.6003008952971274  0.3498728620751751   T   T   T
  0.1914726237603382  0.4768827416029403  0.0868481253052065   T   T   T
  0.7478499938602569  0.5036847472062312  0.8681975277775372   T   T   T
  0.0955656499370057  0.2014448457432668  0.0669362218978221   T   T   T
  1.0341056092992744  0.8208373793986623  0.8621860621013865   T   T   T
  0.2733727612042099  0.5341127255257980  0.8383713491487381   T   T   T
  0.6715495273525864  0.4167976344056179  0.1077213922887502   T   T   T
