Sr Co O 
 1.0000000000000000
    -4.8012466064045034    2.7433269383033445    0.6499315755753623
    -4.9205743192318181   -8.4228105181814712    0.7378575762225964
     3.4987407162328568    2.7677102087577516    8.7415749790245911
 Sr  Co  O  
   8   8  20
Selective dynamics
Direct
  0.0399396879699824  0.2584872431049784  0.8504342722576187   T   T   T
  0.9564171483710551  0.7341563614465263  0.1464711757184318   T   T   T
 -0.0032428359036866  0.1125090222671441  0.4006319120253461   T   T   T
  1.0216109507676168  0.8788244457954700  0.6031855882373529   T   T   T
  0.5090958988832667  0.7769258106859659  0.8308858760262986   T   T   T
  0.5016534730423907  0.1752722895400277  0.1180691936731095   T   T   T
  0.4931569362181472  0.6503486975840500  0.3974109967401935   T   T   T
  0.5406670696642826  0.3406397356198870  0.6225200933159931   T   T   T
  0.0216177338822691 -0.0324812200659084 -0.0389385427885636   T   T   T
  0.5079106953411485 -0.0063940581736546  0.4946125367039546   T   T   T
  0.4621596696274637  0.9181419114051236  0.2295740970118966   T   T   T
  0.5264704603507043  0.0800021469482616  0.7633747451482137   T   T   T
  0.5215754423815132  0.4843567503472194 -0.0206540300886610   T   T   T
  0.0649674379640141  0.4862009299536193  0.5115220145571319   T   T   T
 -0.0520412319016606  0.4389430568592886  0.2375846199178366   T   T   T
  1.0259604713696115  0.5774905224406056  0.7982448575593609   T   T   T
  0.2647481308343794  0.8699910697482451  0.3580911633000395   T   T   T
  0.7512927944082392  0.1080017534629054  0.6309014921011667   T   T   T
  0.7218510858582706  0.8758918663065965  0.3580827702845866   T   T   T
  0.2842480601501387  0.1047219871958301  0.6253395389012207   T   T   T
  0.5328839337093354  0.8782982416373442  0.6217105627960660   T   T   T
  0.4854146640605627  0.1229957110436295  0.3847252328883135   T   T   T
  0.6617351571108506  0.9108499292169491  0.0920704822709697   T   T   T
  0.2842624025711282  0.0340312218852543  0.8748897566107241   T   T   T
  0.5139358900985213  0.2889664334603995  0.8717738554632222   T   T   T
  0.7816619667081035  0.0692501889787555  0.9052873551786899   T   T   T
  0.1763174349100895  0.9724214161742772  0.1339570882434228   T   T   T
  0.3518698016361432  0.5655752893303170  0.5962699617335024   T   T   T
 -0.1592809221740347  0.3569060995093775  0.3751750480987205   T   T   T
  0.0318782646136024  0.3890513893224627  0.6424755187182681   T   T   T
  1.0300006931781813  0.6142677685500069  0.4083451745651143   T   T   T
  0.7269618630285068  0.5577396893655696  0.8725035495232828   T   T   T
  0.1702607719551826  0.3477073213932648  0.1209681558426986   T   T   T
  0.9946116384123670  0.7730714669925155  0.8090826353246019   T   T   T
  0.2506184250746966  0.5898446368327119  0.9584848179244622   T   T   T
  0.6866591055232939  0.5238427978593232  0.1616361708523345   T   T   T
