Sr Co O 
 1.0000000000000000
    -4.6655296894913656    2.7610830770953210    0.8025847036647777
    -4.7520983926972891   -8.4676062132004368    0.8141733169361389
     3.0026148302771940    2.8455418485327124    8.6290990456225654
 Sr  Co  O  
   8   8  20
Selective dynamics
Direct
 -0.0114751718948012  0.2994739838470495  0.8512242365807566   T   T   T
  1.0224916100360519  0.7024272147453979  0.1488047835154161   T   T   T
 -0.0159881710490821  0.1302313242087468  0.3950054881857221   T   T   T
  1.0017702747216126  0.8319768157216491  0.5960541823943165   T   T   T
  0.4998386865105136  0.7643897575815348  0.8463264425872812   T   T   T
  0.4725895791646734  0.2150805764819292  0.1508427097590921   T   T   T
  0.4818964194759750  0.5977356098635825  0.3857660454781172   T   T   T
  0.4847084685258911  0.3749238422540620  0.6048967630026870   T   T   T
  0.0196478087608650 -0.0284120112358673 -0.0014918203633225   T   T   T
  0.5363586159677107 -0.0301954327022437  0.5064683309337702   T   T   T
  0.5078464946584741  0.9287190390281959  0.2398282074418708   T   T   T
  0.4748705029888832  0.0880846919854664  0.7737615459300190   T   T   T
  0.4950598893225741  0.4767871410781724 -0.0172212644908241   T   T   T
 -0.0209598856122819  0.4840471567514539  0.4944775338774117   T   T   T
 -0.0142590517676263  0.4054389790073759  0.2250215477953484   T   T   T
  0.9915651578829504  0.5874012829190934  0.7688482048047047   T   T   T
  0.3193927217412255  0.8437522869092876  0.3656530658444845   T   T   T
  0.7606468194033761  0.0789538281168129  0.6533605247606781   T   T   T
  0.7709388744604388  0.8849529101999045  0.3421204212540567   T   T   T
  0.4508291603779172  0.8928936058558109  0.6562973402914725   T   T   T
  0.4798724043695881  0.1174494477693287  0.4236785205787815   T   T   T
  0.2157296561316538  0.0854351606238188  0.9082862306921173   T   T   T
  0.7142476326068680  0.9864327837171541  0.1000339573443849   T   T   T
  0.4657889570243666  0.2832881715771127  0.8228338604009859   T   T   T
  0.2241745619228683  0.9658470701691041  0.1538915012689899   T   T   T
  0.7522213908938565  0.3576357603809533  0.3590200225231133   T   T   T
  0.2190940452141478  0.6017103166747351  0.6180321282198230   T   T   T
  0.2094493830625969  0.3624159431239534  0.3572806325907558   T   T   T
  0.7488949306703951  0.6022905027462816  0.6286092878528741   T   T   T
 -0.0121283527539926  0.3785396516378014  0.6331602762253540   T   T   T
  0.9635748050975482  0.6066991286658284  0.3741973311518836   T   T   T
  0.2633901995157142  0.4595311302417516  0.1252758322718872   T   T   T
  0.7467483181188773  0.5735055022136569  0.9196800051820612   T   T   T
  0.9859867291449307  0.7972362537247288  0.8477078905647483   T   T   T
  0.2506161405277597  0.5723179598588346  0.9006349236267120   T   T   T
  0.7524209593320167  0.3918528646869412  0.0863334481639682   T   T   T
