Sr Co O 
 1.0000000000000000
     5.0106822805599478   -2.7382372599885416   -0.5312041252942415
     4.9093551119438610    8.0479468487196151   -0.4397649001297900
    -1.0348723692146364    0.0704084998532874    9.4676987121829441
 Sr  Co  O  
   8   8  20
Selective dynamics
Direct
  0.4514505360948249  0.1307012130776168  0.8832277798660659   T   T   T
  0.1040843047303999  0.3707321531097656  0.1589716947427484   T   T   T
  0.2268475583205780  0.0963194058827187  0.4100257995068350   T   T   T
  0.3072321081838251  0.4534953627371928  0.6132193359739193   T   T   T
  0.9167282440766904  0.6494195438994826  0.8684266517998196   T   T   T
  0.5547779002609238  0.8664438386716444  0.1477433086569715   T   T   T
  0.6739092413189528  0.5553757151956284  0.3666412215660969   T   T   T
  0.7843280751991764  0.9282849998229424  0.6286914726148966   T   T   T
  0.0305830943356995  0.0165390216957388  0.0378740414726019   T   T   T
  0.7505422276460570  0.2550979134720686  0.4996014657509554   T   T   T
  0.6185730259038814  0.2018323037482399  0.2362171304781157   T   T   T
  0.9221323876744073  0.2607912800950782  0.7819969384269455   T   T   T
  0.5279221382503182  0.5134408081765566  0.0211559181129833   T   T   T
  0.2376218493081270  0.7615611034795970  0.5011417783582990   T   T   T
  0.1048369465078272  0.7104319021248463  0.2119089681623971   T   T   T
  0.3989601125424996  0.7719927511198986  0.7549974992765032   T   T   T
  0.8889399430555260  0.3001106996283828  0.3440409717920297   T   T   T
  0.6119293766136248  0.2395751636781378  0.6699332624670306   T   T   T
  0.4613125093284628  0.3214888982914011  0.3824914325669380   T   T   T
  0.0537126059591317  0.2423613238657836  0.6094257417504012   T   T   T
  0.6833114826142760  0.0639563163313786  0.3879399401841737   T   T   T
  0.3116660188914869  0.1151929535837007  0.1398034198896235   T   T   T
  0.0718091283645024  0.3995361880025439  0.8946299178112855   T   T   T
  0.5900017783458601  0.3346952625929012  0.0795790958716817   T   T   T
  1.0017007492188572  0.0787582219548356  0.8515104469010684   T   T   T
  0.7761882477433623  0.0777383073121329  0.1145377018509955   T   T   T
  0.3045415406109103  0.8347671391688459  0.3389034841918175   T   T   T
  0.0997117484250252  0.7061607641642614  0.6588436611887739   T   T   T
  0.5623776063120890  0.6717181871464691  0.5906133407927758   T   T   T
  0.3190466115633422  0.9279584789815903  0.6247194703537076   T   T   T
  0.1032099399902678  0.6098227652487782  0.3804212700065243   T   T   T
  0.8174285333870441  0.6271439839495285  0.1237235162237614   T   T   T
  0.6249046243783926  0.8732531575605046  0.8695710103888833   T   T   T
  0.1197510887479759  0.8265134651703375  0.0552302452801829   T   T   T
  0.4713350996261697  0.5944396736711708  0.8515612071049719   T   T   T
  0.3515913631257419  0.5853496879107102  0.1586799013662900   T   T   T
