Sr Co O 
 1.0000000000000000
    -0.0000000000000000    5.4942415332325352    0.0000000000000000
    -9.4034549611119242   -0.0000000000000000    1.6772466492333649
    -1.7159714220621238    0.0000000000000001    9.5760953614112765
 Sr  Co  O  
   8   8  20
Selective dynamics
Direct
  0.0000725870490761  0.7164007187432976  0.8548537523985327   T   T   T
 -0.0060025963902202  0.2954456402410983  0.1425905641881112   T   T   T
 -0.0037036850512329  0.8823179567687423  0.3775992410367091   T   T   T
 -0.0188009225596224  0.1419735005437721  0.5985179286435054   T   T   T
  0.4939974036097802  0.2045543897589021  0.8574094358118909   T   T   T
  0.5000725870490759  0.7835993112567020  0.1451462476014673   T   T   T
  0.4811990774403774  0.3580265294562270  0.4014820713564957   T   T   T
  0.4962963149487668  0.6176820732312549  0.6224007589632913   T   T   T
  0.0065740047852474 -0.0101011505059549  0.0088085169116997   T   T   T
  0.0076842980419692  0.5007500991385848  0.5067028572029830   T   T   T
  0.0247961659115028  0.5870863102740693  0.2251015585402031   T   T   T
 -0.0079841043292554  0.4166321567937715  0.7732209590658773   T   T   T
  0.5065740047852467  0.5101011805059557 -0.0088085169116997   T   T   T
  0.5076842980419691 -0.0007500691385847  0.4932971427970184   T   T   T
  0.4920158956707443  0.0833678732062290  0.2267790409341230   T   T   T
  0.5247961659115027  0.9129137197259282  0.7748984414597971   T   T   T
 -0.0434130038967559  0.3982494072705453  0.3754904003146726   T   T   T
  0.0095795380377872  0.6337190212631281  0.6143008963415930   T   T   T
  0.2482499920426639  0.6065334723569221  0.3756034150288877   T   T   T
  0.7548349161642012  0.3896089195803492  0.6304901954465563   T   T   T
  0.2189815783431783  0.3553274552655441  0.6576040875269483   T   T   T
 -0.0226946580971300  0.7904848939128214  0.1629768317541540   T   T   T
  0.3066923682757706  0.5075785966392290  0.1453925318126351   T   T   T
  0.7348526740025335  0.4217367501963812  0.8979282251908369   T   T   T
  0.2326775584433527  0.4283335684103052  0.9029480007096343   T   T   T
  0.7836033891104314  0.5675814256503932  0.0950530684850940   T   T   T
  0.5095795380377867  0.8662810087368722  0.3856991036584073   T   T   T
  0.4565869961032442  0.1017506227294551  0.6245095996853282   T   T   T
  0.7189815783431782  0.1446725747344562  0.3423959124730528   T   T   T
  0.7482499920426632  0.8934665576430776  0.6243965849711128   T   T   T
  0.2548349161642003  0.1103911104196521  0.3695098045534442   T   T   T
  0.4773053419028695  0.7095151360871784  0.8370231682458464   T   T   T
  0.7326775584433528  0.0716664615896949  0.0970519992903673   T   T   T
  0.2836033891104306  0.9324186043496066  0.9049469315149066   T   T   T
  0.8066923682757712  0.9924214333607737  0.8546074681873654   T   T   T
  0.2348526740025342  0.0782632798036188  0.1020717748091647   T   T   T
