Sr Co O 
 1.0000000000000000
     4.8039036466976288   -2.7761886285039479   -0.7305203129543280
     4.7370379995847536    8.2010900001647826   -0.7255137035665020
    -1.5512248696627917    0.0161648024635317    9.5511588956332538
 Sr  Co  O  
   8   8  20
Selective dynamics
Direct
  0.4035628007913221  0.1570012798094521  0.8297977645356810   T   T   T
  0.0977767041287540  0.3795292786831043  0.1609113000504067   T   T   T
  0.2103177393808200  0.0844266129267482  0.3977368904850905   T   T   T
  0.2863095801859219  0.4387000777647292  0.5937359560628543   T   T   T
  0.9376208693783387  0.6178118584615362  0.8454087002179230   T   T   T
  0.5790167431933386  0.8541899068410986  0.1739728460187863   T   T   T
  0.6958841769766130  0.5738975156951236  0.4123228314422561   T   T   T
  0.7920031599026847  0.9369634763912729  0.5949587714349963   T   T   T
  0.0815889448614485  0.0133275860780321 -0.0288734802793256   T   T   T
  0.7465126911902270  0.2551493633924524  0.4894623070563195   T   T   T
  0.6057104423134924  0.2201894955328240  0.2229340475128333   T   T   T
  0.8675882176252655  0.2724215960673843  0.7549530086968934   T   T   T
  0.5302375643429503  0.5178776156691574  0.0250602915824590   T   T   T
  0.2386955507076895  0.7593587995657710  0.5124615720603223   T   T   T
  0.1306774051491166  0.7107214588177727  0.2462989097699155   T   T   T
  0.3741874196950064  0.7700338106269217  0.7764957719205354   T   T   T
  0.9066496287925052  0.3093898481591207  0.3527743676240918   T   T   T
  0.5693469312771582  0.1967101208436462  0.6176902033742108   T   T   T
  0.4567513781754399  0.3293521313580270  0.3776578266969772   T   T   T
  0.0404920600401513  0.1837893303525354  0.6044848458003756   T   T   T
  0.8163475874984788  0.4219573140293380  0.6316510098501824   T   T   T
  0.6797401226190122  0.0835101579442949  0.3515007819232555   T   T   T
  0.2927699020318921  0.1195254855670676  0.1319249047736959   T   T   T
  0.1056284177196201  0.3699919284619064  0.8953162645556266   T   T   T
  0.6106526693938258  0.3357875845144329  0.0792118793442823   T   T   T
  0.8530886296699965  0.1035055294111922  0.8463081155723725   T   T   T
  0.4066194229316208  0.8244486282881975  0.3815277590727241   T   T   T
  0.0529082431438386  0.6936572167459581  0.6268583878246481   T   T   T
  0.9554819031276570  0.8202111890146984  0.3733642260231066   T   T   T
  0.5383708129340959  0.7016497768264871  0.6356438664741800   T   T   T
  0.3077732742390119  0.9247567404932606  0.6633213734530793   T   T   T
  0.1807684963467169  0.5812423139504921  0.3912116239948815   T   T   T
  0.8493370005334254  0.6371868137051223  0.1018803742761366   T   T   T
  0.4525035302365121  0.5921011504599805  0.8520823968294889   T   T   T
  0.2417083921664965  0.8462668430906614  0.9316219309001855   T   T   T
  0.3583713069456657  0.6123601986074655  0.1543302018431013   T   T   T
