Sr Co O 
 1.0000000000000000
     4.7646024485485219   -2.7507262007186584   -0.6992787811384933
     4.7788360530870149    8.2905062433728709   -0.8698443237411874
    -1.5530905310572867   -0.1389972326590396    9.5162894276694399
 Sr  Co  O  
   8   8  21
Selective dynamics
Direct
  0.4057255410823395  0.1343714273997326  0.8401711639261530   T   T   T
  0.1247432745340896  0.3447233945902871  0.1633794259183508   T   T   T
  0.2093252688106226  0.0731450940303544  0.4100274401940590   T   T   T
  0.2987336915337604  0.4452437815134321  0.6019290305992003   T   T   T
  0.9010882969680059  0.6645869011974868  0.8282222809182898   T   T   T
  0.5981912710139989  0.8812503046146739  0.1446204279266141   T   T   T
  0.6985783811344237  0.5765640547882268  0.3981241013206210   T   T   T
  0.7863488471284612  0.9382654428287523  0.5957540066208501   T   T   T
 -0.0258627346452478  0.0124654511735091 -0.0232837588636057   T   T   T
  0.7540729651668829  0.2580390967964458  0.5112640918414605   T   T   T
  0.6776026222080707  0.2031082967973081  0.2473181505091221   T   T   T
  0.8513119350996997  0.3012679201648122  0.7770353874861695   T   T   T
  0.5418400583958988  0.5421539395326400 -0.0027626025998779   T   T   T
  0.2381369374969694  0.7557437450089315  0.4880989031404308   T   T   T
  0.1380358600166436  0.6946506279266116  0.2242259707030013   T   T   T
  0.3633129919010549  0.7987308310098454  0.7588189450968631   T   T   T
  0.9435310339556310  0.3103690894154771  0.3840601562262956   T   T   T
  0.5586341206281710  0.1981977758781785  0.6236876698067952   T   T   T
  0.4852951983693063  0.3171881582143790  0.3702414154323050   T   T   T
  0.0423587716161557  0.2136449391192852  0.6467144885958179   T   T   T
  0.7999176223131830  0.4354198840995134  0.6470549900104758   T   T   T
  0.7073882772431188  0.0754473341433423  0.3929199512567433   T   T   T
  0.4146592363094955  0.1422483917802601  0.1068050120644656   T   T   T
  0.9810447334459268  0.1819794899694413  0.9018811473890492   T   T   T
  0.6533939066771178  0.3810367092633647  0.9071032458537621   T   T   T
  0.9152861866705960  0.0872671873626330  0.1565069742517727   T   T   T
  0.4160957154590518  0.8036879176702527  0.3529786146012242   T   T   T
  0.0629896115035203  0.7110422744303228  0.6180985385347595   T   T   T
  0.9615384157293669  0.8119269698154953  0.3517448458008551   T   T   T
  0.5281288352618151  0.7039322208062571  0.6162955266557028   T   T   T
  0.2995908893534157  0.9320012889562488  0.6231294901847545   T   T   T
  0.1733193270728755  0.5717977323546970  0.3742165005166502   T   T   T
  0.6701573778094644  0.9011694733420350  0.8818518066005606   T   T   T
 -0.1520248092030272  0.6545344089114757  0.0805338770012973   T   T   T
  0.3848574811102894  0.6318331632495053  0.8456928519500894   T   T   T
  0.1834334543959037  0.8923646914293186  0.9005795818204247   T   T   T
  0.3577191749089602  0.5661006614372992  0.1309601000258566   T   T   T
