Sr Co O 
 1.0000000000000000
    -4.8038884436400950    2.7789547013825584    0.6094024720737106
    -4.7136696773775073   -8.1908214986580941    0.7215141582236693
     3.4206116204708672    2.6315924913059434    8.7551111743394010
 Sr  Co  O  
   8   8  20
Selective dynamics
Direct
  0.0170262197255086  0.3118777468611518  0.8459869294955289   T   T   T
  1.0450085460659959  0.7015524470562345  0.1036193883615820   T   T   T
 -0.0029426145321928  0.1251876807560888  0.4106953856190114   T   T   T
  1.0000246768726140  0.8844815098462305  0.6283628710463796   T   T   T
  0.5112076518607171  0.7631973191702429  0.8390972367480480   T   T   T
  0.4760901677981022  0.2212806932629836  0.1725980412564149   T   T   T
  0.4747202393838439  0.6469893129598782  0.4023925345513646   T   T   T
  0.4933785657859133  0.3806697218636950  0.6105271077484000   T   T   T
  0.0768185643554744 -0.0055503045018350  0.0076681678688690   T   T   T
  0.4893818026130501  0.0085230124309727  0.5198163270968268   T   T   T
  0.5229664623428478  0.8997547256309137  0.2544916012375683   T   T   T
  0.4834995782294110  0.1031513876822563  0.7825390248075963   T   T   T
  0.5260657566974312  0.5091496846604413  0.0017997274627554   T   T   T
 -0.0180252403052748  0.5004424599879392  0.4855579989398602   T   T   T
 -0.0277892238023500  0.3776238850342095  0.1927424304367809   T   T   T
  0.9971169697558296  0.5926541368850206  0.7521602056480637   T   T   T
  0.2527613320169512  0.8771667027595301  0.3812744377862660   T   T   T
  0.7209173658524239  0.1359380295045668  0.6725196945581845   T   T   T
  0.7310801436089066  0.8894316528386843  0.4120401505958841   T   T   T
  0.2594676701998640  0.1406692021066092  0.6322940394779621   T   T   T
  0.4835136615808319  0.8974092308188593  0.6524047076032020   T   T   T
  0.5111561464770081  0.1130812615636838  0.3819628206629399   T   T   T
  0.9454027803579234  1.1425763637814641  0.1502064506014353   T   T   T
  0.5931653845732632  0.6970153225577432  0.1562262071615254   T   T   T
  0.2623050371958163  0.1020269341483218  0.9101784301721306   T   T   T
  0.3572891436783740  0.9240281447966409  0.0929374454778878   T   T   T
  0.7469045408812099  0.4223546839432788  0.3365753201990610   T   T   T
  0.2168560459338356  0.6276340778720447  0.6202116947048434   T   T   T
  0.2042625146189510  0.3955926996857119  0.3587697548731772   T   T   T
  0.7607521269616357  0.6239287157422385  0.6108971251665937   T   T   T
 -0.0147193754131612  0.3877613201249056  0.6176562115978800   T   T   T
  0.2006641895411757  0.4534419344150054  0.1110931401659205   T   T   T
  0.7614823552445268  0.5429258173144068  0.8647819257503810   T   T   T
  0.9729862502342213  0.8133448716665650  0.8742203489365846   T   T   T
  0.2704880184217666  0.5468763099592683  0.8728043126621937   T   T   T
  0.7108665505821369  0.3549610782937999  0.0361904112818361   T   T   T
