Sr Co O 
 1.0000000000000000
    -4.7451569460665217    2.7977254602774977    0.7852518618324108
    -4.6904577069292515   -8.2791841694306978    0.8780748907655400
     2.9792725753609020    2.6629738841913917    8.6212829103821083
 Sr  Co  O  
   8   8  20
Selective dynamics
Direct
 -0.0069644311905720  0.2950633578278482  0.8634959994139697   T   T   T
  0.9934137754612908  0.7024865410260321  0.1550653840280924   T   T   T
  0.0134052369118155  0.1380835644149674  0.4084115200183051   T   T   T
  1.0060825194135199  0.8566648853982621  0.5850085686167603   T   T   T
  0.5064717180100341  0.7655383652180274  0.8437723904731541   T   T   T
  0.5027309527973198  0.2401701326235100  0.1650544797241802   T   T   T
  0.5099501721103441  0.6321215845467031  0.3931914945872886   T   T   T
  0.5217380688832404  0.3680120825374933  0.5982427329726521   T   T   T
 -0.0560705050420055 -0.0045855266635063  0.0185286330882894   T   T   T
  0.5101739450505282 -0.0023316625770766  0.4950511788888118   T   T   T
  0.4927441070533254  0.9054439212493833  0.2201109063235407   T   T   T
  0.5077770298474842  0.0983074115014596  0.7582757732947311   T   T   T
  0.5125049658579104  0.5014345462329632  0.0156268340389185   T   T   T
  0.0178808447311704  0.5012736376687165  0.5079664550539820   T   T   T
  0.0106910480423127  0.4075619555456539  0.2352197363311088   T   T   T
  0.9897318009695041  0.6013006932004669  0.7749082903782921   T   T   T
  0.2824559869794393  0.8695182226694985  0.3684114265046881   T   T   T
  0.7432778068067915  0.1304925842837298  0.6185773026033035   T   T   T
  0.7499285565605608  0.8794929535825523  0.3689415095353167   T   T   T
  0.2574209640411223  0.1118042539003749  0.6241166486025480   T   T   T
  0.5276963369919764  0.9005796397424427  0.6531288159751875   T   T   T
  0.4869059739210675  0.1004710593628821  0.3556679726667101   T   T   T
  0.6185880676381852  0.9745635304796599  0.0679698881099329   T   T   T
  0.4490774621003134  0.7157836134861488  0.0932181428370095   T   T   T
  0.5200418011440289  0.2688905880626704  0.9015003717365535   T   T   T
  0.8036232297151166  0.3667986965348748  0.3806517952552916   T   T   T
  0.2316654354899759  0.6326820828996195  0.6423280926649253   T   T   T
  0.2554405770998970  0.3860200235038093  0.3773081124458936   T   T   T
  0.7629600953701982  0.6172581956981069  0.6154106572101453   T   T   T
  0.0384517375907458  0.4013454875418156  0.6539121045457853   T   T   T
  1.0190615514804242  0.6050137003139687  0.3710809152578378   T   T   T
  0.2178546808557906  0.4608831349307321  0.0893760260711122   T   T   T
  0.7399442637080751  0.5347752752785410  0.8782989034185605   T   T   T
  0.0255647825377697  0.1888042889216895  0.1019767393895132   T   T   T
  1.0219618639126324  0.8059252454673560  0.9029539688466361   T   T   T
  0.7348181627144972  0.4693515348393858  0.1532400171541363   T   T   T
