Sr Co O 
 1.0000000000000000
     4.6968650800058986   -2.8010426115796210   -0.7700515298859224
     4.6790012168662862    8.3584114476781792   -0.9145649548072968
    -1.7197322961673926   -0.1269080854940663    9.6486207743165338
 Sr  Co  O  
   8   8  20
Selective dynamics
Direct
  0.4701543605942656  0.1316309093751684  0.8672083220545105   T   T   T
  0.0691819564508110  0.3464943411906923  0.1724525320122251   T   T   T
  0.1525558746065940  0.0519998953543751  0.3658313551534377   T   T   T
  0.3215461430746895  0.4568968938601992  0.6164517873185700   T   T   T
  0.9275856458143462  0.6759094919397339  0.8421074981634258   T   T   T
  0.5521625541223055  0.8703782964918511  0.1032257947531811   T   T   T
  0.7144072008421067  0.5588778740936611  0.4067438980342731   T   T   T
  0.8217979475500117  0.9343792459395259  0.6239482806698984   T   T   T
  0.0097568554126892  0.0073757767066922 -0.0002635752647567   T   T   T
  0.7520060627026671  0.2533987912616920  0.5229438055856254   T   T   T
  0.6091350838864021  0.1955806570204543  0.2605826384388772   T   T   T
  0.9544493708808296  0.3050638564905774  0.7894410334562036   T   T   T
  0.4372365501811423  0.5237721013389841 -0.0102449641371297   T   T   T
  0.2375012752583252  0.7514176809704233  0.4831580605521767   T   T   T
  0.0369100187405001  0.6784571980473240  0.1948912213433087   T   T   T
  0.3891022453792984  0.8017787123191259  0.7501735372951388   T   T   T
  0.9210606045703940  0.3045349680782853  0.3911952722426961   T   T   T
  0.6542535194217491  0.2012321360690767  0.6736398860134740   T   T   T
  0.4492388576964261  0.3164615838992929  0.3819663632328781   T   T   T
  0.8587341361350790  0.4275436166419013  0.6590057427691459   T   T   T
  0.6985326781644101  0.0663938023009056  0.4134618971787694   T   T   T
  0.2982291223185953  0.0968978374685766  0.1547588800792767   T   T   T
  0.2970856135610223  0.3660005612463912  0.8380507281080209   T   T   T
  0.9939090200437264  0.1950637499887663  0.9199024653812898   T   T   T
  0.7716315982926566  0.1149530830844181  0.1273386991173910   T   T   T
  0.0861300890935395  0.6899499777430742  0.6270469453204186   T   T   T
  0.9408303955481104  0.7954369874821868  0.3534381340048001   T   T   T
  0.5474143297173095  0.7039759982662953  0.6066461674496522   T   T   T
  0.2992691915649449  0.9333491469542867  0.6099193038760524   T   T   T
  0.2241412040508425  0.5877134872839211  0.3449954324196544   T   T   T
  0.7158679348380932  0.5370654110011949  0.1447094467984498   T   T   T
  0.7091141675854336  0.9133216788754464  0.8561944541589590   T   T   T
  0.0401016118666150  0.8333961200970595  0.1127600219481708   T   T   T
  0.4787677267646036  0.6582412949043112  0.8751443428456559   T   T   T
  0.2183341538135754  0.9093855431202593  0.8744163633498430   T   T   T
  0.1443647354651416  0.5531711982640135  0.0494580995944481   T   T   T
