Sr Co O 
 1.0000000000000000
     4.7719159335569836   -2.7658479084622871   -0.7324383199985190
     4.6990236894920319    8.1884661890037247   -0.7626759399096020
    -1.5764591079170558    0.0045149346476022    9.5236974014059843
 Sr  Co  O  
   8   8  21
Selective dynamics
Direct
  0.4503999668617801  0.1406768377474075  0.8900569254499385   T   T   T
  0.0703400242719154  0.3597825526513236  0.1660278511999625   T   T   T
  0.1673205065913125  0.0637942546235233  0.3773591383061107   T   T   T
  0.3210795889768928  0.4647607643306769  0.6127021185057950   T   T   T
  0.9431285620672493  0.6614707279637558  0.8398806072998251   T   T   T
  0.5481487372917165  0.8492396989564855  0.1351826745229346   T   T   T
  0.6809283560756467  0.5551873986516070  0.3797342374918784   T   T   T
  0.8039185403632176  0.9192914184793866  0.5907185997749412   T   T   T
 -0.0008050454202535  0.0008525251648263 -0.0002195522813691   T   T   T
  0.7494864188895896  0.2503061030523410  0.5073590350739426   T   T   T
  0.5967837552387371  0.2009934946413056  0.2401673929825867   T   T   T
  0.9440418245007500  0.3218081970759190  0.7856795932923204   T   T   T
  0.5115008137357978  0.5002231725609718 -0.0004634639565850   T   T   T
  0.2520474096089546  0.7554093660220708  0.4908613461188432   T   T   T
  0.0884218691398659  0.6949137324809054  0.2259296026484839   T   T   T
  0.4090460194617815  0.8056218691260896  0.7622178557016596   T   T   T
  0.9019885742801688  0.3014611498498196  0.3654040324262589   T   T   T
  0.4466847053318875  0.3012412898944986  0.3892081683306987   T   T   T
 -0.0087841231055021  0.1709445771516219  0.6478510741710368   T   T   T
  0.7922893594272783  0.4286231447934473  0.6325973845069164   T   T   T
  0.6738229693051339  0.0732632925672212  0.3826638798664415   T   T   T
  0.2715592717188696  0.0951333653837238  0.1373546162609461   T   T   T
  0.2694267491586023  0.3921678623534093  0.8460105124565594   T   T   T
  0.5064648295686498  0.3493272642263696  0.1263592104362005   T   T   T
  0.7730529129630724  0.3409861420585844  0.9147383660056256   T   T   T
  0.7880361329456921  0.0786979318112495  0.1138655789141479   T   T   T
  0.3897032873632295  0.8036432765167630  0.3444932814546172   T   T   T
  0.1060986557651307  0.7060843092271831  0.6341983545856021   T   T   T
  0.9507839104020421  0.8092548752663183  0.3645850333073404   T   T   T
  0.5515134720958133  0.7037134064778492  0.6134341874889322   T   T   T
  0.3248681109925583  0.9350880566934506  0.6166941741255003   T   T   T
  0.1915150234802641  0.5686746038866090  0.3817774087016161   T   T   T
  0.7688461645568755  0.6019598831258679  0.1450694677106901   T   T   T
  0.7293859275951224  0.9207117558900185  0.8522287887623389   T   T   T
  0.5066601397902230  0.6539002506922708  0.8755289536020676   T   T   T
  0.2207819138351550  0.9049438861661832  0.9020526782439454   T   T   T
  0.2260144104995211  0.6213473541320208  0.0846906980381712   T   T   T
