Sr Co O 
 1.0000000000000000
     4.8090879223156957   -2.7521890441435621   -0.7993905203389178
     4.8021105189175035    8.2270401440987868   -0.8103029860595873
    -1.6858981438239113    0.0069888131096311    9.3489844411895895
 Sr  Co  O  
   8   8  20
Selective dynamics
Direct
  0.4272207745445840  0.1309586351324095  0.8346644716817188   T   T   T
  0.0836139926186330  0.3687117607723821  0.1505104070619308   T   T   T
  0.1934215961210603  0.0578522904796479  0.4040179250596220   T   T   T
  0.2978972476613127  0.4297199849015580  0.5914117054974882   T   T   T
  0.9153343099554275  0.6414811032101869  0.8438361845692526   T   T   T
  0.5620601135071829  0.8495016585303202  0.1522903781297053   T   T   T
  0.7039395301203781  0.5708165685519132  0.4157832223695700   T   T   T
  0.7910323663715159  0.9300694785233355  0.5965157242460336   T   T   T
  0.0039966633293692 -0.0204610864052074 -0.0278486941770254   T   T   T
  0.7462690739863457  0.2476465781009872  0.4985203531577540   T   T   T
  0.6159258839183164  0.2290368814469259  0.2299161243841153   T   T   T
  0.8690907518741183  0.2860957891340442  0.7769535147163059   T   T   T
  0.4960410431504831  0.4989913891055714 -0.0060063562621299   T   T   T
  0.2388143214119784  0.7445427199126370  0.4973648561168855   T   T   T
  0.1200646315054454  0.7147170293376653  0.2273258309126202   T   T   T
  0.3992500813026434  0.7928013375876282  0.7718889689191558   T   T   T
  0.9395701532284322  0.2964932432415417  0.3716781409539575   T   T   T
  0.5554645273343586  0.1923290124027503  0.6183039899414262   T   T   T
  0.4649085672326606  0.3321101995844347  0.3778375077839536   T   T   T
  0.0244884385806329  0.1757842713588628  0.6384095098214947   T   T   T
  0.8472459312775150  0.4181100189537982  0.6428164111531878   T   T   T
  0.6466475854346558  0.0779978049323563  0.3409023792660164   T   T   T
  0.4928495981347012  0.3273998567505534  0.0736050407515311   T   T   T
  0.9593618422087103  0.1627378943201127  0.9253220506589419   T   T   T
  0.7436071854602595  0.4183320003535618  0.9068187739903193   T   T   T
  0.4337244386905538  0.8001867689527121  0.3805294164239947   T   T   T
  0.0807001438100280  0.6975846320086092  0.6390165649127486   T   T   T
  0.9478143481914502  0.8077151967237918  0.3641668132611340   T   T   T
  0.5229071770823621  0.6744310983972497  0.6240504521913322   T   T   T
  0.3067092329093837  0.9172297224758068  0.6273102751372500   T   T   T
  0.1432973522573457  0.5741817440689780  0.3543403566124690   T   T   T
  0.7134862769211727  0.8949866396268495  0.8440707788556627   T   T   T
  0.0531414012552637  0.8840906870546111  0.1335214615686006   T   T   T
  0.5055875306210337  0.6596177770467212  0.9141863787633426   T   T   T
  0.2881381318627307  0.9239915242670478  0.9182145418915038   T   T   T
  0.2573777718967093  0.5912078943708786  0.0917542252638010   T   T   T
