Sr Co O 
 1.0000000000000000
     4.6883035491359744   -2.8040722082179466   -0.6911941710719891
     4.8197483028744461    8.4818621605774567   -1.0849252441583743
    -1.7029701974934606   -0.3583726960174453    9.3709811062674380
 Sr  Co  O  
   8   8  20
Selective dynamics
Direct
  0.3967814316415462  0.1639375158322024  0.8114258746947879   T   T   T
  0.0183404556427999  0.3612159891511038  0.1138233064678415   T   T   T
  0.1918504807500194  0.0296421624919453  0.3939856364608753   T   T   T
  0.2989353572488724  0.4489037449145681  0.6211536227833693   T   T   T
  0.9122375245941291  0.6471257210614835  0.8536328286025924   T   T   T
  0.5904441069102164  0.8251635432862338  0.1676507266602552   T   T   T
  0.6977992769521347  0.5749710221180170  0.4152747655082574   T   T   T
  0.7990972515011618  0.9366834740493352  0.6180416882238435   T   T   T
  0.0125268152102166  0.0217168990186363 -0.0197129976573208   T   T   T
  0.7379850384561064  0.2415575945868222  0.4545070068525457   T   T   T
  0.4935677483224963  0.1401810246244692  0.1660459592980793   T   T   T
  0.8531464360395756  0.2971846732494134  0.7379726265960759   T   T   T
  0.4464144846195206  0.5103257889810036 -0.0281227654684052   T   T   T
  0.2523767072406577  0.7485542215202393  0.5224535473890546   T   T   T
  0.1491710569836601  0.6831932417559453  0.2536156723588216   T   T   T
  0.4184629062585705  0.8183159442855342  0.7979180509029999   T   T   T
  0.5421657822563754  0.2085963562013840  0.5957090685775337   T   T   T
  0.6780075184949272  0.3144760712055940  0.2821774864564413   T   T   T
  0.0109239801147664  0.1843994259895688  0.5972502044409800   T   T   T
  0.8114555520754130  0.4209443880704368  0.5991325397448201   T   T   T
  0.6759054726382203  0.0606600102842372  0.3299772323917678   T   T   T
  0.1386363803911418  0.1394999711754764  0.1715441204594294   T   T   T
  0.1685488226307488  0.3904162944131607  0.8586564383623754   T   T   T
  0.8935865080049360  0.1593058512238079  0.8626502656208215   T   T   T
  0.6896677217962137  0.4160059588308582  0.8904852804331675   T   T   T
  0.4453508618900919  0.8011896338274485  0.4014423963588525   T   T   T
  0.0910940489465107  0.7210260751988350  0.6680031390213061   T   T   T
  0.9588579053185874  0.7907184681949396  0.3863425924919364   T   T   T
  0.5328724425988175  0.6913815001840506  0.6473383720894642   T   T   T
  0.3323022081277929  0.9297725218369267  0.6513345652099156   T   T   T
  0.1745257166736441  0.5584823865371251  0.3862985309172419   T   T   T
  0.7675748595165472  0.8914295201268435  0.8774113797959036   T   T   T
  0.0557674729355670  0.7877502361758663  0.1242335236929073   T   T   T
  0.4596730068533803  0.6789546123530171  0.9133130809302419   T   T   T
  0.3546935734395061  0.9834006909203180  0.9694588211041715   T   T   T
  0.3722528770435448  0.5639170143181731  0.1535753673097390   T   T   T
