Sr Co O 
 1.0000000000000000
    -4.8348089484226877    2.7687267309819381    0.7042333237722732
    -4.9185352728025986   -8.4572932569996979    0.4878742820083235
     3.5347459369971248    3.0200922309267777    8.7527583796162656
 Sr  Co  O  
   8   8  21
Selective dynamics
Direct
  0.0367337478154867  0.2903906299904101  0.8317961329526855   T   T   T
  1.0291044632288973  0.6896429936771485  0.1295179459118867   T   T   T
 -0.0294976703144936  0.1575148990024896  0.3684749670937053   T   T   T
  1.0111141979401908  0.8581147042682928  0.6533338631945970   T   T   T
  0.5398265838282723  0.7718168578685707  0.8717215521960419   T   T   T
  0.4533068597769768  0.2477606569880001  0.1408716260488391   T   T   T
  0.4876355998133159  0.6241901614473832  0.4013225940782157   T   T   T
  0.5139479630283474  0.3901659312428518  0.6079921580568985   T   T   T
  0.0092447943936858  0.0084081763834861  0.0087903692145196   T   T   T
  0.3813973738076525 -0.0064553876710595  0.4971472723342049   T   T   T
  0.4917953272592810  0.9529017697251889  0.2354339265310665   T   T   T
  0.5218804265323859  0.0715416049088216  0.7913731348195140   T   T   T
  0.5507414145230219  0.4720224618342268 -0.0359155983267312   T   T   T
 -0.0009194862532911  0.5075097208113980  0.5041434818074904   T   T   T
 -0.0422809655258736  0.4142735784004102  0.2308540441538824   T   T   T
  1.0364252051278502  0.5948739217991649  0.7747609854808776   T   T   T
  0.3654675566353141  0.8205599436023771  0.3081590710912925   T   T   T
  0.1017174092088017  0.0667782209431389  0.5704304159552681   T   T   T
  0.5165096077179696  0.8960570903671367  0.6095668793740424   T   T   T
  0.5361605588506013  0.1207949083124461  0.4273059689284759   T   T   T
  0.7637652841221533  0.9102479118595073  0.1458971367478648   T   T   T
  0.2461728479170973  0.0787017095003579  0.8834450754193640   T   T   T
  0.5662124707058238  0.2662929019566592  0.8083560202937702   T   T   T
  0.7611484993939968 -0.0106723402842013  0.8678879580051344   T   T   T
  0.2513249152270979  1.0284477207200018  0.1564216931029056   T   T   T
  0.7462430131061446  0.3957741104886706  0.3765659079890401   T   T   T
  0.2499507270596893  0.6206662940683894  0.6358444935231782   T   T   T
  0.2036895589326308  0.3830001839381864  0.3609647287583982   T   T   T
  0.7909333890575261  0.6293068455985290  0.6483301550936866   T   T   T
  0.0158166165940485  0.3931807269701177  0.6234757843115395   T   T   T
  0.9840240764129449  0.6191832167944441  0.3837099193240204   T   T   T
  0.1729741133417947  0.4366799053615583  0.1094836829423791   T   T   T
  0.7986033065056731  0.5569448337410181  0.8915820706807484   T   T   T
 -0.0987028382628898  0.2072394978640673  0.1214356657863825   T   T   T
  1.0894217495063068  0.8011352992134128  0.9056264706442569   T   T   T
  0.2975380026521482  0.5442870384962561  0.8901848581718963   T   T   T
  0.6882237471568615  0.4803712752569986  0.1370077127067463   T   T   T
