Sr Co O 
 1.0000000000000000
     0.0037614746056124    5.5875475837796262    0.0554946057971948
    -9.5540119510254460   -0.0231724340958284    1.6354544070018453
    -1.7504100891051828    0.1047055541005659    9.5160136143947831
 Sr  Co  O  
   8   8  20
Selective dynamics
Direct
 -0.0152351855148500  0.7218391352652651  0.8475409119816231   T   T   T
  0.0335247601045707  0.2799421443253023  0.1500336299680123   T   T   T
  0.0139889055738656  0.8933220335779258  0.3851877476717047   T   T   T
 -0.0011368167873390  0.0911422374972586  0.6199218831017739   T   T   T
  0.5031537693169970  0.2002023932680548  0.8337943230596695   T   T   T
  0.4921692315623956  0.8177130224842751  0.1235200653586816   T   T   T
  0.5035358502924765  0.3392796408516535  0.4057672044466069   T   T   T
  0.4989636375521083  0.6389485557740703  0.5856736503645210   T   T   T
  0.0093478059921241  0.0041191542652658 -0.0173416557829453   T   T   T
  0.0000493421257976  0.4761926229165940  0.5096557141767373   T   T   T
 -0.0045613993434882  0.6215439960592418  0.2538066334406468   T   T   T
 -0.0123139972872295  0.3863413888625509  0.7871080121990419   T   T   T
  0.4944337302500574  0.4925160510063767 -0.0368013082823914   T   T   T
  0.5072324458393487 -0.0102918875860929  0.4946309217395979   T   T   T
  0.5129453063523834  0.1096907613172294  0.2253945154571920   T   T   T
  0.4987584916300681  0.8951066581794583  0.7684572649396894   T   T   T
  0.0928680504911223  0.4347162136647695  0.2998634445284255   T   T   T
  0.1790509681460230  0.6477046655144876  0.4142773284250681   T   T   T
  0.8116610854198838  0.3298631377233103  0.6336544610949517   T   T   T
  0.2434043379352627  0.3922777439201024  0.6440256400516160   T   T   T
  0.7268856821836256  0.5711732443554433  0.3916299501881748   T   T   T
 -0.0304720838425142  0.8133787951152159  0.1425385213202093   T   T   T
 -0.0877636570560467  0.1951427763505343  0.9414012004116229   T   T   T
  0.7221704868279922  0.4948599660908896  0.8139331876038943   T   T   T
  0.1772936357811906  0.4681452246698142  0.9038756505247627   T   T   T
  0.5347685966413535  0.9005476311061700  0.3455760887444910   T   T   T
  0.4951501799361582  0.0904918949612547  0.6283308689914229   T   T   T
  0.7404311111919284  0.1245906484751287  0.3646178349831155   T   T   T
  0.2798694505355777  0.8537001149620266  0.6292045849073638   T   T   T
  0.7403138024037150  0.8637374778570921  0.6264744898516724   T   T   T
  0.2630404002905724  0.1131297540708740  0.3830045348446420   T   T   T
  0.5376922716953643  0.3278426348276225  0.1297113832094578   T   T   T
  0.5031632076416134  0.6924065632115882  0.9294483068288715   T   T   T
  0.2353211241866837  0.9481690307194230  0.8672569159219297   T   T   T
  0.7314868339145427  0.9550583393865844  0.8816976878126899   T   T   T
  0.3158091692265064  0.0704565131528557  0.0951280713219066   T   T   T
