Sr Co O 
 1.0000000000000000
    -4.8549340509485814    2.6790379142095810    0.6203657934848267
    -5.0676704080421313   -8.3892646682286927    0.3992203957984277
     3.7498247189700606    3.0672114350432640    8.9253785203016491
 Sr  Co  O  
   8   8  20
Selective dynamics
Direct
 -0.0403369544628342  0.2840742271690301  0.8848340403115307   T   T   T
  0.9661540183714229  0.7024953882448848  0.1240938866830003   T   T   T
 -0.0100095284968124  0.0917626731478692  0.3399112767013399   T   T   T
  0.9816249643206298  0.8733770521624150  0.6174523205331632   T   T   T
  0.4937204379846718  0.8186880582794468  0.8608919471326032   T   T   T
  0.4762947434641719  0.2009053534498912  0.1325984374207348   T   T   T
  0.4921208211780049  0.6366577622108679  0.3563235199193308   T   T   T
  0.5578918337416988  0.3550632237113257  0.6189045960003315   T   T   T
 -0.0262692051640518  0.0034015845554059 -0.0081114989928461   T   T   T
  0.5025516903781766 -0.0135559903831128  0.4798211390462527   T   T   T
  0.4828238969658549  0.9114072058684608  0.2143935873042039   T   T   T
  0.4769558090158449  0.0900833268302204  0.7601374963524632   T   T   T
  0.4598702771640681  0.4810347023939570 -0.0033061121192948   T   T   T
  0.0912174623732910  0.4800387479987132  0.5009995646623506   T   T   T
  0.0064645723475099  0.4212553143744327  0.2325122556808872   T   T   T
  1.0681019014977182  0.6081230098039990  0.8035071145635613   T   T   T
  0.2618832632633462  0.8682074941321889  0.3290058012848768   T   T   T
  0.7131341087123768  0.1076056785157664  0.6389844684265791   T   T   T
  0.7201251580858551  0.8501912619535288  0.3313726661092805   T   T   T
  0.4514358582595211  0.8857737384136597  0.6001659035928868   T   T   T
  0.4925863684721818  0.1200739201109490  0.3904698137301097   T   T   T
  0.7234667950969572  0.9304844657376465  0.1078680841731412   T   T   T
  0.2231189308294842  0.0586388028857086  0.8512197541695721   T   T   T
  0.4144814753344985  0.3011678764182812  0.8276290367540030   T   T   T
  0.7168976872257025  0.0685890673636137  0.9020329545828807   T   T   T
  0.2414264079568031  0.9668764909181701  0.0983190035534039   T   T   T
  0.9702441202431163  0.3400701147245241  0.5424680050440621   T   T   T
  0.2944491246951409  0.5912822435981716  0.6674396561915036   T   T   T
  0.3094548990846520  0.4055072512266944  0.3518438139049566   T   T   T
  0.9290398398941407  0.5986852849436861  0.4160343232358910   T   T   T
  0.2107856919016711  0.4737302453629199  0.1161811859284705   T   T   T
  0.8340516100918430  0.5230143592725719  0.8518328840717840   T   T   T
 -0.0498146097814331  0.2172403859170573  0.1591257992237969   T   T   T
  0.9533529001085052  0.8024807392769229  0.8269924049728297   T   T   T
  0.3257573605237217  0.6382225541459505  0.9606157855794530   T   T   T
  0.7154961430692416  0.4708964463118405  0.1215348843097852   T   T   T
