Sr Co O 
 1.0000000000000000
     0.0000000000000000    5.5320025770455610   -0.0000000000000001
     9.4830252302460813    0.0000000000000000   -1.9783778277201582
    -2.6865384436683812   -2.7660012885227805   -8.6867776293610586
 Sr  Co  O  
   8   8  20
Selective dynamics
Direct
  0.5692850829806692  0.8731094223206157  0.1402647730201488   T   T   T
  0.9290203099605165  0.6268905476793838  0.8597352269798495   T   T   T
  0.8112616853044069  0.9572410692889358  0.6359564719074829   T   T   T
  0.6753052133969253  0.5427589007110633  0.3640435280925149   T   T   T
  0.0732114619211282  0.3537109813020248  0.1379851944740137   T   T   T
  0.4352262674471117  0.1462889886979739  0.8620148055259843   T   T   T
  0.3066876243741114  0.4191438090105519  0.6069298602635301   T   T   T
  0.1997577641105807  0.0808561609894472  0.3930701397364676   T   T   T
  0.0110713620530951 -0.0076807666992094  0.0194626332538022   T   T   T
  0.7541399993077721  0.2499999849999995  0.4999999999999987   T   T   T
  0.8888431878169398  0.3055303224528920  0.7694697876396311   T   T   T
  0.6193734001773102  0.1944696475471068  0.2305302123603670   T   T   T
  0.4916087287992924  0.5076807366992102 -0.0194626332538023   T   T   T
  0.1631577223267980  0.7499999850000002  0.4999999999999989   T   T   T
  0.3663015694482236  0.8060074689813060  0.7824184443736570   T   T   T
  0.0838831250745668  0.6939925010186930  0.2175815556263409   T   T   T
  0.8071607331796289  0.4329473373007841  0.6052225199917809   T   T   T
  0.7019382131878487  0.0670526326992141  0.3947774800082167   T   T   T
  0.0549600405092252  0.1984273012910665  0.6448275181437161   T   T   T
  0.4536430621326560  0.3010154171838909  0.3574722949190877   T   T   T
  0.9101325223655085  0.3015726687089325  0.3551724818562821   T   T   T
  0.5961707672135677  0.1989845528161084  0.6425277050809108   T   T   T
  0.2041041778600739  0.3836190820466207  0.8975081200915835   T   T   T
  0.3123439810414576  0.1310704669907040  0.1050336594772993   T   T   T
  0.8065960577684892  0.1163808879533773  0.1024918799084126   T   T   T
  0.7073103215641544  0.3689295030092942  0.8949663405226975   T   T   T
  0.3508995406199769  0.9061258470867296  0.5951190758745666   T   T   T
  0.2557804647454098  0.5938741229132690  0.4048809241254312   T   T   T
  0.8737393638590411  0.7723638984826208  0.3447636882256215   T   T   T
  0.0289756756334192  0.7276360715173789  0.6552363117743776   T   T   T
  0.4586191438800891  0.6244408155714453  0.8155170976536857   T   T   T
  0.1431020462264044  0.8755591544285543  0.1844829023463134   T   T   T
  0.6993067625675654  0.8862046218648373  0.8869105091542024   T   T   T
  0.8050406466872719  0.5689339838182697  0.1173950795230963   T   T   T
  0.3123962534133654  0.6137953481351620  0.1130894908457979   T   T   T
  0.1876455671641742  0.9310659861817300  0.8826049204769009   T   T   T
