Sr Co O 
 1.0000000000000000
     0.0000000000000000    5.5206952979792794    0.0000000000000000
     9.3495136057650488    0.0000000000000001   -1.5349622022680169
    -3.0931383206383476   -2.7603476489896397   -8.7675456913502696
 Sr  Co  O  
   8   8  20
Selective dynamics
Direct
  0.5671984239940131  0.8603019586900135  0.1343968479880246   T   T   T
  0.9393214898880434  0.6483996316636083  0.8786429797760883   T   T   T
  0.8165768616955908  0.8983237891945920  0.6331537233911828   T   T   T
  0.6857857408822784  0.5854290082605558  0.3715714817645553   T   T   T
  0.0750744003986614  0.3681701548726901  0.1501488007973227   T   T   T
  0.4230403768236222  0.1354126434136338  0.8460807536472463   T   T   T
  0.3023305779805227  0.4264495051401040  0.6046611559610465   T   T   T
  0.2073444329960739  0.0479882347783128  0.4146888659921485   T   T   T
  0.0077907860534186 -0.0009059700236403  0.0155815721068368   T   T   T
  0.7490282788811785  0.2265705079466898  0.4980565577623576   T   T   T
  0.8819779394800923  0.3072298989513223  0.7639558789601857   T   T   T
  0.6040824247694422  0.2095453432146721  0.2081648495388828   T   T   T
  0.5037197062028114  0.5005986083087680  0.0074394124056213   T   T   T
  0.2537298460657598  0.7397508038708075  0.5074596921315204   T   T   T
  0.3857422493131704  0.7889469881570812  0.7714844986263425   T   T   T
  0.1193850099969356  0.7182332570804101  0.2387700199938713   T   T   T
  0.0425109454763513  0.1953754522031277  0.6371406174872646   T   T   T
  0.4547512382623149  0.2565399195469615  0.3671086289645158   T   T   T
  0.9123573907022027  0.2565399195469615  0.3671086289645158   T   T   T
  0.5946296720109122  0.1953754522031277  0.6371406174872644   T   T   T
  0.5791490486823174  0.3916143428561145  0.1582980973646334   T   T   T
  0.1786504551154803  0.4111109010403297  0.8574212715773228   T   T   T
  0.2887983603407790  0.1369889089629943  0.0747602941433975   T   T   T
  0.7859619338026212  0.1369889089629943  0.0747602941433975   T   T   T
  0.6787708164618400  0.4111109010403298  0.8574212715773230   T   T   T
  0.3146057090273074  0.9226384162963924  0.6292114180546162   T   T   T
  0.1821871352483097  0.5681369862375373  0.3643742704966200   T   T   T
  0.5495173003884746  0.6727107546816353  0.6393821489723639   T   T   T
  0.9563633483069960  0.8056037177875485  0.3848549043646577   T   T   T
  0.4284915560576623  0.8056037177875485  0.3848549043646577   T   T   T
  0.0898648485838885  0.6727107546816353  0.6393821489723639   T   T   T
  0.0836080560020054  0.8925542891623528  0.1672161120040108   T   T   T
  0.6959037503276649  0.8825369222366471  0.8864996463916056   T   T   T
  0.7994283750212327  0.6344392627963342  0.1031540720579845   T   T   T
  0.3037256970367527  0.6344392627963342  0.1031540720579845   T   T   T
  0.1905958960639389  0.8825369222366471  0.8864996463916056   T   T   T
