Sr Co O 
 1.0000000000000000
     4.7454598613294765   -2.8617451380412970   -0.7396954544563200
     4.6360867505026278    8.3393374271892764   -0.6788190819593670
    -1.5739141957117255    0.0340747466524614    9.4548061936588415
 Sr  Co  O  
   8   8  20
Selective dynamics
Direct
  0.4728970204161225  0.1262941396707908  0.8785107861465500   T   T   T
  0.0739071236567868  0.3477141857542828  0.1647643075917905   T   T   T
  0.1848600951759727  0.0376062430115770  0.3751187725219436   T   T   T
  0.3350111077549930  0.4610579259571554  0.6192664028632081   T   T   T
  0.9433370541317087  0.6802206374581695  0.8638551231190797   T   T   T
  0.5632198465996259  0.8773080185175035  0.1454235990451936   T   T   T
  0.7003448318031337  0.5793229571098071  0.4087314316755997   T   T   T
  0.8274746451407892  0.9231517802491284  0.6072854752046456   T   T   T
  0.0067056575431137  0.0075214324259823  0.0032026642331318   T   T   T
  0.7478986985024947  0.2490520994807013  0.5122984403615042   T   T   T
  0.5925596931874241  0.2180788640993117  0.2411396108312234   T   T   T
  1.0023322979461944  0.2999459077069780  0.7790570060843930   T   T   T
  0.4557324936690497  0.5111424350430160  0.0147484719027261   T   T   T
  0.2609555714530393  0.7475418372711291  0.5013440494134076   T   T   T
  0.1036147086449908  0.7004784184941417  0.2322155568161932   T   T   T
  0.4153044735694604  0.8018199013684569  0.7733438474194637   T   T   T
  0.4652380316983679  0.3174935381554622  0.3977462408476999   T   T   T
  0.0478367653186319  0.1840091201068396  0.6014369335689029   T   T   T
  0.8129816493002976  0.4164334602833736  0.6502933090044687   T   T   T
  0.6662683316777768  0.0821672739413980  0.3875025153024051   T   T   T
  0.2792689473872434  0.1088652549473755  0.1407991821056911   T   T   T
  0.3396386045236397  0.3691273433448892  0.8475252168087259   T   T   T
  0.9295833659257100  0.1948746373944240  0.9013692334477199   T   T   T
  0.7878005269367334  0.1219834392624935  0.1413174567273905   T   T   T
  0.4317575293587994  0.7964538320346132  0.3665696493956049   T   T   T
  0.1124937749156876  0.6958999844013273  0.6459628142373042   T   T   T
  0.9582714845429912  0.8009303269512700  0.3782464460965850   T   T   T
  0.5595560443213540  0.6944122766074821  0.6302205991559076   T   T   T
  0.3396807596915233  0.9259873516405871  0.6261073530403721   T   T   T
  0.1600896548642788  0.5664218130435672  0.3715436843721408   T   T   T
  0.6110544182893163  0.4001563181332311  0.1597931554338093   T   T   T
  0.7303577791296655  0.9146657800997621  0.8595682347990958   T   T   T
  0.0198408660933370  0.8427527532684684  0.1224824817717727   T   T   T
  0.5164999206566753  0.6592375170606781  0.9233931595186039   T   T   T
  0.2450717060852168  0.9058212919562311  0.8960018252510560   T   T   T
  0.1710543338337067  0.5695497370153391  0.0811148536681582   T   T   T
