Sr Co O 
 1.0000000000000000
    -4.7682723734062122    2.7382718566494191    0.7881194450061332
    -4.8974878990888593   -8.5419032437744473    0.1752639951526740
     3.4950620164024078    3.4694055842138694    9.0283845102935665
 Sr  Co  O  
   8   8  20
Selective dynamics
Direct
  0.0324094716386861  0.2979680957504005  0.8600387663146383   T   T   T
  1.0466334155262800  0.7145806089862521  0.1015103837269265   T   T   T
  0.0144839873261700  0.1205204040844054  0.3810274945260679   T   T   T
  0.9831960550919012  0.8697471189999048  0.6750526090301909   T   T   T
  0.5466255109124389  0.7855130396129492  0.9123350121217864   T   T   T
  0.5317464270231222  0.2030021922526490  0.1533025054433316   T   T   T
  0.4830065639670384  0.6310488304290345  0.3387013506799634   T   T   T
  0.5150274613982837  0.3800611189935884  0.6324540014349785   T   T   T
  0.0306434388613046  0.0135900080160970  0.0292785321501798   T   T   T
  0.3868359187369813  0.0077029667634238  0.5299840618664130   T   T   T
  0.5200351333044803  0.9169910909532283  0.2462466014382114   T   T   T
  0.5115909444202805  0.0801644154086917  0.8134495372163187   T   T   T
  0.5308445429336333  0.4866073477289893 -0.0158933793531809   T   T   T
 -0.1131922627085628  0.4931776364698642  0.4836332067708006   T   T   T
  0.0117048983286131  0.4201848770793694  0.2001364374531784   T   T   T
  1.0202273678635898  0.5835675577648041  0.7673702843549297   T   T   T
  0.2681745592406013  0.8652168068308003  0.3424031796136516   T   T   T
  0.5559449317314066  0.1022943403942766  0.4299099708955139   T   T   T
  0.1036246225564573  0.0878979156150674  0.6143193144250703   T   T   T
  0.5386016438857175  0.9039691856226812  0.6209413795518395   T   T   T
  0.7909481800693442  0.9607283396297761  0.1542825470854176   T   T   T
  0.2324886717447063  0.0775841509191945  0.9091644781110707   T   T   T
  0.5767312599951275  0.7087310962762615  0.1336432495979490   T   T   T
  0.5318821083835749  0.2688696568476224  0.8187628629153743   T   T   T
  0.7509010029294477  0.0267352755075690  0.9119638925582083   T   T   T
  0.2889535365588560  0.9779843961606627  0.1368165830526015   T   T   T
  0.6038658402051835  0.4127752256622675  0.3992297042397313   T   T   T
  0.7684572982780197  0.6358788449665178  0.6711970823087396   T   T   T
  0.0563227443389560  0.3983625420823080  0.5837270988778372   T   T   T
  1.0376857838281317  0.5967293737996453  0.3924106663072939   T   T   T
  0.2520748153423006  0.4726944100461454  0.1019847832515580   T   T   T
  0.7885617885822979  0.5231180035906812  0.8766624150559716   T   T   T
  0.0302849590614650  0.2313436890137200  0.1946109024341587   T   T   T
  1.0780356326270208  0.7914107115911323  0.8799133527735055   T   T   T
  0.2907455175709174  0.5387954253033213  0.8595930161725792   T   T   T
  0.7333464950614242  0.4229033831685453  0.1037359281034008   T   T   T
