Sr Co O 
 1.0000000000000000
    -4.7993004591333603    2.7939813683627217    0.7835149202529775
    -4.7397158905334864   -8.3176607847874546    0.6780022139357781
     3.1554135997219608    2.8648363233311804    8.7299902925314381
 Sr  Co  O  
   8   8  20
Selective dynamics
Direct
  0.0042435278232011  0.3155791351907616  0.8307312959524524   T   T   T
  1.0025598976315817  0.6966589354339385  0.1309664569112430   T   T   T
 -0.0118506201140965  0.1274243960095734  0.3892847118238211   T   T   T
  1.0104570736437957  0.8513382761350158  0.5952280300321442   T   T   T
  0.5046433614777629  0.7594158076465151  0.8461677634917709   T   T   T
  0.5118904278294160  0.2109170008598121  0.1573041374893399   T   T   T
  0.5202057542719871  0.6233888041672592  0.3786701269173861   T   T   T
  0.5179104891035825  0.3900879173573508  0.5869349207639922   T   T   T
 -0.0707291607241369 -0.0079859999953209 -0.0028072869944033   T   T   T
  0.4793037436461505  0.0199234400797890  0.5204734244538436   T   T   T
  0.5147086369315279  0.8981122417827259  0.2547539958941407   T   T   T
  0.4973407918622230  0.1384172118808885  0.8038416580189010   T   T   T
  0.5243006908202710  0.5032583055700365 -0.0148519686028034   T   T   T
  0.0164507639670762  0.5003624998440739  0.4815416955036342   T   T   T
  0.0054235341677075  0.3901896369411097  0.2136232160580458   T   T   T
  1.0190532180294007  0.6004330217119549  0.7533005123641014   T   T   T
  0.2640769806006828  0.8808265659471549  0.3828083159429731   T   T   T
  0.6887846807508085  0.1622200854837417  0.6507734262615624   T   T   T
  0.7231332742768486  0.8901526787525513  0.4264523202249618   T   T   T
  0.2402753987408303  0.0895590110866335  0.6633271701917992   T   T   T
  0.4700864970258223  0.1065549181665177  0.3577035742644485   T   T   T
  0.7735959509254267  0.9320487814413578  0.1453632749490024   T   T   T
  0.4934503371581501  0.6913673148332966  0.1484377320390937   T   T   T
  0.3935154102142761  0.3109251842906146  0.9531976991513997   T   T   T
  0.6398318015023573  0.0224038647831672  0.8953563672734965   T   T   T
  0.7748552218758757  0.3704445194237063  0.3678828723122953   T   T   T
  0.2531064278462245  0.6305294373738614  0.6121774594851735   T   T   T
  0.2483967416317293  0.3836782782236795  0.3482854948415111   T   T   T
  0.7875556887089270  0.6283853066656303  0.6140880497850770   T   T   T
  0.0348174213196199  0.3963624738492162  0.6139913643901481   T   T   T
  1.0051010145687407  0.5993774250691347  0.3421160925079176   T   T   T
  0.7542652466546934  0.5506433778228252  0.8582443602650005   T   T   T
  0.0429821719289110  0.1726996103308988  0.1120114173665477   T   T   T
  1.0483534982073637  0.8206162303996147  0.8669244705823806   T   T   T
  0.2444040423621402  0.5589940550082187  0.8865832151081728   T   T   T
  0.8123495332339619  0.4305399329000800  0.0818123540096995   T   T   T
