Sr Co O 
 1.0000000000000000
     4.8669665991507225   -2.7920691392045383   -0.8201345570385128
    -4.7955594344946473   -2.6951171504187155    0.7773900931818274
     3.3587379437556151   -0.1387629477662307  -19.2301753060531553
 Sr  Co  O  
   8   8  20
Selective dynamics
Direct
  0.2907046545532095  0.7271625614590465  0.5884124162823199   T   T   T
  0.7028055203229320  0.2990864998173632  0.9306509376445556   T   T   T
  0.1179989772154043  0.8893539994615955  0.8182364919355796   T   T   T
  0.8668455147963446  0.1489349904864103  0.7115854992389763   T   T   T
  0.2963572116267222  0.7221802875201927  0.0494701302970246   T   T   T
  0.7742355049880332  0.3124273511740323  0.4349564240191565   T   T   T
  0.1260051424696071  0.8338324761936988  0.2944698099690269   T   T   T
  0.8801980095173795  0.1461822499310690  0.1721158203609120   T   T   T
 -0.0030358353314972  0.0160588828282637 -0.0035402845906740   T   T   T
  0.5185448437634192  0.5095046261400755  0.7475091550607434   T   T   T
  0.4073617161568213  0.5974138869181609  0.8804051054781550   T   T   T
  0.6423575056188631  0.4350513380105817  0.6143452558726304   T   T   T
 -0.0284346263965535  0.0030910951822553  0.4995409779544583   T   T   T
  0.4982991674229102  0.5127844570168416  0.2556567588555217   T   T   T
  0.4559540227668221  0.5302616624066859  0.3927913231618975   T   T   T
  0.5964233980910630  0.4543755273388360  0.1150302904087070   T   T   T
  0.6100916382416222  0.4038674847228722  0.8159864407455304   T   T   T
  0.4462224817408427  0.6286326452090152  0.6760220424135637   T   T   T
  0.1586920183736329  0.3841184741137358  0.8100948833856558   T   T   T
  0.8865220410805471  0.6273825372325370  0.6931498061629250   T   T   T
  0.4083832222154682  0.1667837755762979  0.6819022053260362   T   T   T
  0.5999659019091230  0.8566408556555614  0.8119499306661719   T   T   T
  0.1777530370269204  0.7626364784156417  0.9350500509147985   T   T   T
  0.7226479689968018  0.1636594846309805  0.5500500998768388   T   T   T
  0.2353486798046124  0.3045017734557462  0.9413287550873780   T   T   T
  0.8920705878198487  0.7104045577439710  0.5465243359908781   T   T   T
  0.6967220513045543  0.8369486342703356  0.9348797271098781   T   T   T
  0.5915616432273808  0.3162246851398796  0.2972628441538119   T   T   T
  0.3657911116478698  0.5990966131828901  0.1944538707096894   T   T   T
  0.8415008227879598  0.6614499986482140  0.1938453008662641   T   T   T
  0.2032549261609498  0.4863964973796485  0.3337314482077483   T   T   T
  0.7996497640300900  0.2694705847595721  0.0698294056389163   T   T   T
  0.3174393240789765  0.3318718530887667  0.4742991648737239   T   T   T
  0.7576512699899738  0.7583911637829924  0.0607632997282003   T   T   T
  0.2878337401027709  0.1955592022465741  0.0712922460597059   T   T   T
  0.8122770144263444  0.8542609748966253  0.4099481637837903   T   T   T
