Sr Co O 
 1.0000000000000000
     0.0046146141104247    5.4272123303273103   -0.0144432446259443
     9.8731852381657657    0.0060306838272452   -1.1439630639725200
    -3.8185231174911962   -2.6958680164262141   -8.7995850064983223
 Sr  Co  O  
   8   8  20
Selective dynamics
Direct
  0.6022462016177401  0.8234624500217808  0.1679042014411934   T   T   T
  0.9640768052323021  0.6269892468967492  0.8919679153704910   T   T   T
  0.8203999483343405  0.9604718039147473  0.6141706679340592   T   T   T
  0.6868718074536992  0.5517821741740434  0.3632291097407541   T   T   T
  0.0558390977013982  0.3462654891185529  0.0795859323458110   T   T   T
  0.4334802813966868  0.1681005830890555  0.8234075937400671   T   T   T
  0.3444085588993984  0.4273230571378289  0.6372679877135164   T   T   T
  0.2084598809926970  0.0501895053767761  0.3707770389050020   T   T   T
 -0.0342633945966634 -0.0275692664429122  0.0046993070434553   T   T   T
  0.7553820268579952  0.2481720515940249  0.4697448929386557   T   T   T
  0.8868013541275610  0.2943247085339696  0.7362628439648814   T   T   T
  0.5451241754474559  0.1694023208453885  0.1732967451743720   T   T   T
  0.5178632327456656  0.4883380374279784  0.0030552590832286   T   T   T
  0.2684822116902060  0.7595210245270531  0.5174610370102227   T   T   T
  0.3733033145548120  0.8474408860249524  0.8445271232831920   T   T   T
  0.1345543492916051  0.7054861859548157  0.2450374429966047   T   T   T
  0.8292812208862252  0.4288197698057841  0.6167664262663518   T   T   T
  0.0486725040783675  0.1917986302129765  0.5885169622286393   T   T   T
  0.5088457786184177  0.3123522467988572  0.3439044574149647   T   T   T
  0.7068710500519236  0.0789695076909416  0.3128985268448509   T   T   T
  0.5754031292613340  0.1866743220406725  0.6011384028656994   T   T   T
  0.9442628762985217  0.1605076846822862  0.8381278712268225   T   T   T
  0.5783204411733106  0.3064306623765106  0.0883409720776140   T   T   T
  0.2051715237216187  0.4042974464098370  0.8585886353788303   T   T   T
  0.1696472682740366  0.1198459342732670  0.1371332108777925   T   T   T
  0.7012703776824448  0.4067567123181922  0.8634981889518190   T   T   T
  0.2109647866781609  0.5743156464377398  0.4693562588819951   T   T   T
  0.9744419663042511  0.8171978850793281  0.3907200076494483   T   T   T
  0.4534147092798528  0.8013306603661143  0.3874234871135328   T   T   T
  0.3826246781721525  0.9116093115632267  0.6823201223484952   T   T   T
  0.4607960485809461  0.6849747971740182  0.8850667164378111   T   T   T
  0.0665070139155021  0.8424252046890541  0.1238438796458099   T   T   T
  0.6002408981450065  1.0032454387055054  1.0053462811968075   T   T   T
  0.8304590721940430  0.5844940120531485  0.1481203989921424   T   T   T
  0.3294568560822984  0.5801068031661718  0.1405783787542607   T   T   T
  0.0076680369451868  0.8564968243974298  0.8286157383734832   T   T   T
