Sr Co O 
 1.0000000000000000
     4.7405531416378492   -2.7053509384471823   -0.7795086184841057
    -4.8112468703496276   -2.8013233250801655    0.7955625108701968
     3.2586533107223516    0.0574713301972201  -18.8337051357415142
 Sr  Co  O  
   8   8  20
Selective dynamics
Direct
  0.2733523577019471  0.6990089614809395  0.5744882136200390   T   T   T
  0.7563360947669213  0.2731596786320794  0.9201622978721223   T   T   T
  0.1467505712498488  0.8544494170572460  0.7981124010960874   T   T   T
  0.8824177607152909  0.1247187502652408  0.6994446946977914   T   T   T
  0.3211233512772839  0.7294132584018066  0.0727339011976840   T   T   T
  0.7029086972727279  0.3052530638026871  0.4277906404879562   T   T   T
  0.1536336129206207  0.9380887048056322  0.3088482354707114   T   T   T
  0.8588180022184084  0.1638531832212415  0.1944670679253315   T   T   T
  0.0180633396587812 -0.0230675467638098  0.0077142913755620   T   T   T
  0.5157373582724262  0.4971386362932445  0.7495443045127788   T   T   T
  0.4599100683547991  0.6058370064121160  0.8845386076867878   T   T   T
  0.5688595055114074  0.4031790716263310  0.6155056678688031   T   T   T
  0.0091781158496218 -0.0170014469143677  0.4930771194408843   T   T   T
  0.5020513525752868  0.5530036987167893  0.2490985934942700   T   T   T
  0.4388655817759326  0.6395560118508937  0.3876332394763549   T   T   T
  0.5980270155670477  0.4015213355272694  0.1048875577381466   T   T   T
  0.6406653038849190  0.3942018462707254  0.8156409922670873   T   T   T
  0.3763026130578601  0.6098659813255010  0.6921776695559744   T   T   T
  0.1764389988742294  0.3775740008278424  0.8196429256938713   T   T   T
  0.8565268956784765  0.5918729943945581  0.6791737615891740   T   T   T
  0.3985431230512358  0.1415180353027327  0.6821543828357429   T   T   T
  0.6460883971114419  0.8593863644005494  0.8079085128647924   T   T   T
  0.2219701460329174  0.7303409434767908  0.9527689834833386   T   T   T
  0.7939208006362081  0.6366059607065798  0.5483957223407593   T   T   T
  0.2429693851624271  0.1905144347390708  0.5631350041159595   T   T   T
  0.7828344189002077  0.8197068228059384  0.9369941668795473   T   T   T
  0.6328504865623008  0.4445498027274817  0.3091877377484483   T   T   T
  0.3229246119458316  0.6432170579098487  0.2021065363770590   T   T   T
  0.3817645688223008  0.2002562535385261  0.1890239838433194   T   T   T
  0.6662323552265241  0.9084928619927425  0.3070655388200810   T   T   T
  0.1666715043877264  0.7680543871530143  0.4114143245799937   T   T   T
  0.8337924093058552  0.2253602417413748  0.0690741902230524   T   T   T
  0.2070553937071656  0.3195204782157787  0.4325154164264582   T   T   T
  0.8607627563386198  0.7695909593747277  0.0930099301716962   T   T   T
  0.3709247077159072  0.2829729288385688  0.0308209212016624   T   T   T
  0.6707280954882497  0.8922861209937873  0.4657424338874125   T   T   T
