Sr Co O 
 1.0000000000000000
     4.9418661499946914   -2.6885330256286615   -0.6590554898236105
    -4.9445528058278674   -2.6995734936379230    0.5858574815404048
     2.5284659531953428   -0.2387183425896759  -18.9317199457601326
 Sr  Co  O  
   8   8  20
Selective dynamics
Direct
  0.3092999512147500  0.7874693874033316  0.5742426935739877   T   T   T
  0.6660165877898691  0.2445034618003323  0.9369268615377754   T   T   T
  0.0898572287558428  0.8415351434446503  0.8172633586552404   T   T   T
  0.8833000673570816  0.1725417201936589  0.6924462641853670   T   T   T
  0.2463045327731395  0.6362707476576287  0.0517296374979290   T   T   T
  0.7583122363994000  0.3392439844429916  0.4332761016495175   T   T   T
  0.1772171059168846  0.8799428297250858  0.3129865931203036   T   T   T
  0.8136363127157621  0.0512870169055988  0.1752582679299114   T   T   T
 -0.0565958443797437 -0.0777179619334081 -0.0033252250614036   T   T   T
  0.4852189283974389  0.4711417499010115  0.7467462960112230   T   T   T
  0.3627332133894355  0.5230785275341701  0.8827006784088685   T   T   T
  0.6484126994348512  0.5055804954546950  0.6173308634716476   T   T   T
  0.0264787659528293  0.1007126754285686  0.5037270066515656   T   T   T
  0.4866112722621028  0.4752574788794209  0.2521497150522298   T   T   T
  0.4940296844617814  0.6546003748602692  0.3926504603776590   T   T   T
  0.5074136815395889  0.3270118214601974  0.1126964334401646   T   T   T
  0.5642718994962375  0.3477357846436743  0.8180143820415423   T   T   T
  0.4297877205063007  0.6557059408376461  0.6809289337157206   T   T   T
  0.1311961500815654  0.3589843260203153  0.8058693246413361   T   T   T
  0.8652706000787441  0.6470777740380659  0.7043842968472105   T   T   T
  0.3869138314087350  0.1821040759284747  0.6673310059451031   T   T   T
  0.1757034647660448  0.7176920188581586  0.9281397403223464   T   T   T
  0.8143526628436876  0.3030324877549398  0.5564765875994957   T   T   T
  0.1980403893924438  0.2415597811500122  0.9490735865991119   T   T   T
  0.8935795319107533  0.8519960601347143  0.5713894773317918   T   T   T
  0.6954636766257287  0.7992522321079434  0.9231727274013606   T   T   T
  0.6044959611289167  0.4077747690112580  0.3263492432756979   T   T   T
  0.3481024217793336  0.5353424022817702  0.1823837681045079   T   T   T
  0.3918598762273102  0.1321143427374501  0.2006457281177068   T   T   T
  0.6050962434947587  0.8275018990114398  0.2989740021223292   T   T   T
  0.2697507838366489  0.7973406393727034  0.4306672864956396   T   T   T
  0.7408937578934891  0.1884763998431144  0.0697380166074020   T   T   T
  0.3701236954572540  0.4298337162682577  0.4758796704989354   T   T   T
  0.6730245051079080  0.6039737760765154  0.0478007984407447   T   T   T
  0.1672872814590912  0.0439377415017712  0.0721235488377224   T   T   T
  0.8695390309548677  0.9571045092865121  0.4182019127825594   T   T   T
