Sr Co O 
 1.0000000000000000
     4.8292382037287860   -2.8051708127943860   -0.5065526320983740
    -4.8461991250937455   -2.8320974165224611    0.5381132344751968
     2.1645957357374774    0.1134886202213292  -19.6728698476586779
 Sr  Co  O  
   8   8  20
Selective dynamics
Direct
  0.3066943634264604  0.6295296844479250  0.5382897455668567   T   T   T
  0.5657159543257164  0.3292559747283511  0.9667913925874717   T   T   T
  0.3334214980260262  0.9215168102730050  0.7788318368766577   T   T   T
  0.9847458258920830  0.0703728784928874  0.6582927573125973   T   T   T
  0.1491717438343080  0.7515069865653741  0.1074949324160958   T   T   T
  0.6718285457008041  0.2378488203590974  0.4208798154553640   T   T   T
  0.0481234978349400  0.8607827967324347  0.3236728544764662   T   T   T
  0.7598432465753794  0.1457752768791145  0.2195673752682842   T   T   T
 -0.1511995553435287  0.0503558653316501  0.0361418282002996   T   T   T
  0.7218819020918370  0.5022976380989073  0.7422259403037629   T   T   T
  0.7071552123520439  0.7901181584438681  0.8648541983473246   T   T   T
  0.6249212525035253  0.3111192812318184  0.5939245901698674   T   T   T
 -0.0095868190497177 -0.0599897145999627  0.4910871574935639   T   T   T
  0.4165499716031419  0.4969764220827695  0.2534512092728906   T   T   T
  0.3593795499762271  0.5544524076071022  0.3802566344905799   T   T   T
  0.4789801442105472  0.4311699153145109  0.1252550036597431   T   T   T
  0.5829645638637658  0.4108982988430662  0.8411887975628860   T   T   T
  1.0561159666190363  0.5449347625691716  0.6991012216134319   T   T   T
  0.4633030545941482  0.1981378633892127  0.6856260264398911   T   T   T
  0.7476088379382865  0.8674955736495558  0.7716421096774040   T   T   T
  0.7652173159448453  0.0735644998857260  0.5579375443141492   T   T   T
  0.8494804021902463  0.6472764389831012  0.5678039702379234   T   T   T
  0.3072595051312959  0.1895622709684964  0.5502107078769577   T   T   T
  0.8049458328773506  1.0397571087234376  0.9399506663336935   T   T   T
  0.4992601242731547  0.3370424997974777  0.3160250755940807   T   T   T
  0.3531941577297675  0.6618871594888729  0.1896337123754686   T   T   T
  0.0887303455253719  0.4159773807115469  0.3144691668642852   T   T   T
  0.7404090924191949  0.5664444104063111  0.1932733197880661   T   T   T
  0.2465217199044861  0.1751942365852078  0.1915764692743633   T   T   T
  0.5754101571307672  0.8259392544987672  0.3161307567941798   T   T   T
  0.2199386999575070  0.7931189409682458  0.4344354709742447   T   T   T
  0.5900374096667219  0.1676011379007105  0.0734092220763048   T   T   T
  0.1255664026199017  0.2576239577485085  0.4323533239378575   T   T   T
  0.7450780889818942  0.7059870010897286  0.0587943698611034   T   T   T
  0.1986510580310622  0.3122821051460484  0.0586042338156862   T   T   T
  0.6706805844780522  0.6941858729280734  0.4348166977445510   T   T   T
