Sr Co O 
 1.0000000000000000
     4.7655180166931634   -2.8626976630261676   -0.6992220699514379
     4.6975701051854566    8.4883729220532587   -0.6260192879582321
    -1.3728040313373178    0.0600962378841145    9.6201406291449292
 Sr  Co  O  
   8   8  20
Selective dynamics
Direct
  0.4185337635651397  0.1258949451015427  0.8606665419797778   T   T   T
  0.0129947304039389  0.3266040137256104  0.0906593048919940   T   T   T
  0.2040446581025705  0.0738016026260419  0.3806196355995369   T   T   T
  0.3614100106273005  0.4444379721991010  0.6485971282050873   T   T   T
  0.9227727749967333  0.6314185749021993  0.8694583880067346   T   T   T
  0.5303231616179442  0.8617694978259941  0.1199802819489716   T   T   T
  0.6600331327798303  0.5440713010055631  0.3431035026428649   T   T   T
  0.8597352976375148  0.9283980058916280  0.6611933410312749   T   T   T
 -0.0154580030109198 -0.0067231977045823  0.0126799690708802   T   T   T
  0.8169450183210462  0.2868694617924137  0.4932258213189387   T   T   T
  0.5809357468251732  0.2049151293261487  0.2132742269066035   T   T   T
  0.9063255815289404  0.2907847894879296  0.7635261822832959   T   T   T
  0.4786803920937895  0.4967642516677411 -0.0008864636095278   T   T   T
  0.3541567658570672  0.7834435704402242  0.4875016045900501   T   T   T
  0.0724685375061021  0.6927433873576480  0.2132702995748188   T   T   T
  0.4097824765807794  0.7884756310166016  0.7741995935592934   T   T   T
  0.9078427404460081  0.2662291453163760  0.3255125461368854   T   T   T
  0.4935711006754255  0.2861051905557317  0.3919577300581069   T   T   T
  0.0788719598334480  0.2133847789336092  0.6125880613709279   T   T   T
  0.8160037647816496  0.4290225570559010  0.6356466100429350   T   T   T
  0.2729988474368577  0.0950899705456541  0.1388236151865213   T   T   T
  0.1731330069072700  0.4172625542763275  0.8845596996642389   T   T   T
  0.4834617298513703  0.3672762849271045  0.1286762354690418   T   T   T
  0.9592335085228927  0.1332132351597281  0.8529210691673568   T   T   T
  0.6561819371525046  0.3445060930945990  0.8488285511931721   T   T   T
  0.7238409086807986  0.1041007909187753  0.0875395241288036   T   T   T
  0.5419856266282670  0.8865247267079290  0.4067961556020006   T   T   T
  0.5774406087968830  0.6975118791835140  0.6328166401138210   T   T   T
  0.2989825026720070  0.9211208465991727  0.6389121268781854   T   T   T
  0.1008803205845373  0.6472696760478154  0.4048738479086533   T   T   T
  0.8112568282834050  0.5657235848766768  0.1074839041180884   T   T   T
  0.7187737786686806  0.8872723761660676  0.8880586248546442   T   T   T
  0.0015602553177199  0.8701152405243833  0.1854333329745608   T   T   T
  0.4574307244379797  0.6264074991649323  0.8623521114960896   T   T   T
  0.1926987210459706  0.8591602870485877  0.8814621362928475   T   T   T
  0.3351672267033039  0.6340343557177407  0.1482878291232865   T   T   T
