Sr Co O 
 1.0000000000000000
     0.1284612186946860    5.5763553516274351   -0.0500778946584014
     9.3904146725470934    0.2045348343737251   -1.5670903219725982
    -3.1244846657928962   -2.8225960443435971   -8.7796448248833112
 Sr  Co  O  
   8   8  20
Selective dynamics
Direct
  0.6285266959654179  0.8550953326663600  0.1594639853498304   T   T   T
  0.9344734070135352  0.6669990254900759  0.8691787032719338   T   T   T
  0.8063262625904921  0.9358981488374787  0.5906308414336581   T   T   T
  0.7001169860691074  0.5489637159835845  0.3928138446993473   T   T   T
  0.0857219778294843  0.3580959336366920  0.1630460403325033   T   T   T
  0.4293294008685326  0.1085101770320887  0.8441603049184379   T   T   T
  0.2701703378004874  0.4209253099403188  0.5978507280770987   T   T   T
  0.2127313995677345  0.0645943494990699  0.3930245402404671   T   T   T
  0.0607819300907389 -0.0019340977857410  0.0265249657659685   T   T   T
  0.7400404391811995  0.2479545262422328  0.5051805268109968   T   T   T
  0.8238737741446929  0.3051232655208639  0.7664241501354695   T   T   T
  0.6374288145230922  0.1931644266715095  0.2335160331691016   T   T   T
  0.5496863642001071  0.5177962569295154  0.0022963781852468   T   T   T
  0.2482478558111359  0.7454072370890117  0.4947289458255681   T   T   T
  0.3443919511784347  0.7810411971980828  0.7701507596613031   T   T   T
  0.1705348214846547  0.6927387125148690  0.2316408875146391   T   T   T
  0.7637282118129578  0.4398723744390911  0.6277213293051719   T   T   T
  0.7049079838807513  0.0646017892001525  0.3841398905954985   T   T   T
  0.0377086440311156  0.2047328041867985  0.6613570149249097   T   T   T
  0.4578949160360399  0.2968634974572667  0.3583546845645193   T   T   T
  0.9185100157487186  0.3001824599078436  0.3764458553853062   T   T   T
  0.5484683130897031  0.1867807426501967  0.6191979392294740   T   T   T
  0.6970427179669656  0.3452799280722191  0.9256544551012510   T   T   T
  0.3401425964822021  0.1380877045729920  0.0867675607750054   T   T   T
  0.8577466566199244  0.1029461611941336  0.1260942437534267   T   T   T
  0.3594384845920852  0.9051965558414726  0.6323177028968113   T   T   T
  0.1879792906837112  0.5676863353260744  0.3744622580611741   T   T   T
  0.9988996737153685  0.8174132099577254  0.3517393757485371   T   T   T
  0.4632015427920088  0.7784609219920551  0.3822401232481918   T   T   T
  0.0660674631794852  0.6960570422207278  0.6150463059360917   T   T   T
  0.3731305977252808  0.6011601394791924  0.8404311400553652   T   T   T
  0.1657523457911981  0.8318317671727976  0.1101352920497360   T   T   T
  0.6209179821528917  0.8594985197281531  0.8987997010435683   T   T   T
  0.8594682903044323  0.6082603936994662  0.1014098676919259   T   T   T
  0.3701056621060269  0.5477063272511753  0.1354402917717910   T   T   T
  0.0868562319473215  0.9263580075766468  0.8443135441232167   T   T   T
