Sr Co O 
 1.0000000000000000
    -4.7250593496215130    2.7400933221680170    0.6866894135439396
    -4.8210615912805057   -8.3455460464137978    0.8589531728544716
     3.2022083228328051    2.6558700597525422    8.7017678425976062
 Sr  Co  O  
   8   8  20
Selective dynamics
Direct
  0.0155085871210476  0.2440733313798647  0.8317426142250763   T   T   T
  0.9463480283972047  0.7180710103630075  0.1476112858908605   T   T   T
 -0.0343748372152837  0.1236520018555114  0.3746335654180496   T   T   T
  0.9897712390958937  0.8721320714952859  0.5815797933078378   T   T   T
  0.4782851064443173  0.8123603398942927  0.8479362346841438   T   T   T
  0.4810010841979012  0.2174486241016853  0.1411156550022089   T   T   T
  0.4742683269397991  0.6283225690407943  0.3837576199349646   T   T   T
  0.4835925857023191  0.3276836143641746  0.5871085168369018   T   T   T
 -0.0129546257681668  0.0128846192735068 -0.0033105201353329   T   T   T
  0.4733788604848649 -0.0149206589886578  0.4736382851935094   T   T   T
  0.4583817918481312  0.9104606469490415  0.2069563326168476   T   T   T
  0.5128529974574852  0.0734067429200436  0.7440653389411611   T   T   T
  0.5234093743703209  0.4745486871973045 -0.0344167550319602   T   T   T
 -0.0083990430224997  0.5002715238357595  0.5161810968526624   T   T   T
 -0.0511500714745217  0.4182141000247128  0.2446509383629202   T   T   T
  1.0114080085454209  0.5621913959257590  0.8040550804156408   T   T   T
  0.2420360397001098  0.8617256521720793  0.3395598300151509   T   T   T
  0.7196766463401622  0.1001253480607825  0.5961997482321064   T   T   T
  0.6962957580935923  0.8711365966327012  0.3414303990816825   T   T   T
  0.2563737642568386  0.1012803449595500  0.6114590764556094   T   T   T
  0.4915069266026808  0.8696560353767038  0.6040219945990575   T   T   T
  0.4437130406466949  0.1118307685935374  0.3568998452916720   T   T   T
  0.7035384937274552  0.9496320121104010  0.0962496418521307   T   T   T
  0.2881670534592151  0.0564738620455820  0.8885954223580702   T   T   T
  0.5447781918396136  0.2829870585496574  0.8462786966299555   T   T   T
  0.7931631095815014  0.0038394810245528  0.8320092475538214   T   T   T
  0.7415895271153069  0.3824189184759769  0.4031995937193260   T   T   T
  0.2296113491197831  0.3921821502330590  0.3525057232420510   T   T   T
  1.1392359754047481  0.6535128321711317  0.6720294526160872   T   T   T
  0.0107371494825574  0.3830905326930866  0.6380804220890393   T   T   T
  0.9608731699483702  0.6149580173451900  0.3854985466402021   T   T   T
  0.7048349642185496  0.6035548861602841  0.8925925565989549   T   T   T
 -0.0296450421080630  0.2276773832708615  0.1142335703233130   T   T   T
  1.2020139418966169  0.8939822036320870  1.0676895358776974   T   T   T
  0.1911738839558944  0.5214197312930603  0.9604727393966327   T   T   T
  0.6699989874516853  0.4827155700721141  0.1476890636880329   T   T   T
