Sr Co O 
 1.0000000000000000
    -4.7771236898232488    2.7739748346487292    0.7208400514217846
    -4.8345531234093961   -8.4046346962609917    0.8183632079718333
     3.2071122998028523    2.7282215845971414    8.6186336653068381
 Sr  Co  O  
   8   8  20
Selective dynamics
Direct
  0.0011300227170110  0.2706603078405967  0.8398681530185464   T   T   T
  0.9992839798564503  0.6903344938671921  0.1581529301591307   T   T   T
  0.0039408973528124  0.1087679806321904  0.3893702567944049   T   T   T
  1.0185728829855376  0.8782565299505075  0.5956781319326316   T   T   T
  0.5136987944010194  0.7886741513627665  0.8419725936970891   T   T   T
  0.4561685430438641  0.2437397204082021  0.1357975258504112   T   T   T
  0.4977393281681222  0.6434940805064713  0.4068868383516351   T   T   T
  0.5088013274994291  0.3368554283800202  0.5907061779660221   T   T   T
 -0.0330186614760563 -0.0243980834543116 -0.0449043233583009   T   T   T
  0.5111669512616090 -0.0107545454399526  0.4886988907865216   T   T   T
  0.5500725802535827  0.9140443191866805  0.2235919438214731   T   T   T
  0.4933614920015385  0.0929014833449972  0.7664959161644156   T   T   T
  0.5258905217748886  0.4962898387284929 -0.0230431533317614   T   T   T
  0.0277127506727068  0.4920104401300608  0.5116542929315512   T   T   T
 -0.0606110871744572  0.4190061128378020  0.2470611756716911   T   T   T
  1.0496895330967317  0.5909192844843940  0.7922381509991687   T   T   T
  0.2947150061169240  0.8676749358622005  0.3304591351335719   T   T   T
  0.7280251033301200  0.1111537373384116  0.6308068781476495   T   T   T
  0.7553001815744850  0.8670408931043304  0.3752468349361434   T   T   T
  0.2672782527528249  0.1047997865190223  0.6116393766857271   T   T   T
  0.5023375938778667  0.8859216240370852  0.6305216266941754   T   T   T
  0.5252543644735141  0.1099214421386127  0.3629548715096889   T   T   T
  0.8015932120764858  0.9239897885021155  0.1005423374519130   T   T   T
  0.2452956162752127  0.0535359485334044  0.9078931146837229   T   T   T
  0.4710046093067837  0.3052121165969959  0.8571513835505815   T   T   T
  0.7318715849566170  0.0948563148687052  0.9165448549584342   T   T   T
  0.7340889305708693  0.4137554491251372  0.3994887149033721   T   T   T
  0.2907164076654868  0.5839282590040189  0.6397975527716661   T   T   T
  0.1691302214603557  0.3268065911743667  0.3396139554614405   T   T   T
 -0.0203023775165813  0.3986851189910762  0.6490734467062167   T   T   T
  1.0371459280202517  0.6216588025415268  0.4056216485896819   T   T   T
  0.1284875549264448  0.4122527422685391  0.1008887726445686   T   T   T
  0.7857386757271001  0.5760809726531967  0.9038935676921810   T   T   T
  0.9727558285986040  0.7880214569425129  0.8058933208637721   T   T   T
  0.2974610268682140  0.6306441597946247  0.9566948525610133   T   T   T
  0.6623528021824661  0.4941084469603363  0.1597482076563891   T   T   T
