Sr Co O 
 1.0000000000000000
     4.7697450228451670   -2.8448000927542099   -0.7172532416241555
     4.6146225325021213    8.3230565686991849   -0.8821007744351230
    -1.5842068376675718   -0.1284315120628249    9.4999134604915199
 Sr  Co  O  
   8   8  20
Selective dynamics
Direct
  0.4728577384515750  0.1312673977419334  0.8782947766135529   T   T   T
  0.0751004218139689  0.3496763726741454  0.1645289772797178   T   T   T
  0.1427668228396312  0.0688789423379887  0.3834295983347601   T   T   T
  0.2942808063521615  0.4594134570618391  0.6139721177041829   T   T   T
  0.9572743821359146  0.6671283652950409  0.8805593853727962   T   T   T
  0.5629426769021257  0.8601523077552184  0.1068737391836559   T   T   T
  0.6751987202494738  0.5702691001078383  0.3593000688651168   T   T   T
  0.8647470814593896  0.9173463811252591  0.6500790118714154   T   T   T
  0.0179954106210974  0.0039143308084589  0.0185959752690334   T   T   T
  0.7290021882838528  0.2701577704751280  0.5208190353269098   T   T   T
  0.5938563987192809  0.2185766934923515  0.2404153437678782   T   T   T
  0.9483353762541995  0.2822436682754987  0.7904233328215983   T   T   T
  0.4844260106988195  0.5097026337482287  0.0004760422696034   T   T   T
  0.2422247472138584  0.7514368044976717  0.4989997379987984   T   T   T
  0.0892455285237588  0.7027698569064351  0.2235988725480562   T   T   T
  0.4066611435180374  0.7931022930291074  0.7632852641452786   T   T   T
  0.8833773711672063  0.3225309847305874  0.3872918744396727   T   T   T
  0.4392147014534268  0.3098647181915888  0.3978358972406312   T   T   T
 -0.0022865626809878  0.1776023885160078  0.6064569267949259   T   T   T
  0.3235847998236533  0.0869682782331865  0.1709459331849673   T   T   T
  0.1730499792993506  0.4339299889472037  0.8538541616349483   T   T   T
  0.4959187251205097  0.3506086400149728  0.0963938521220056   T   T   T
  0.9651313444156734  0.1671320348928282  0.9224153504366327   T   T   T
  0.6057229017416462  0.2788911777938652  0.6838215257233453   T   T   T
  0.8052880813355602  0.1053998164164907  0.1565353003251908   T   T   T
  0.0925512042766157  0.6895259931844298  0.6498034733912218   T   T   T
  0.9434070873145067  0.8112992800682151  0.3765921712658482   T   T   T
  0.5487069996904778  0.6914655736892832  0.6073385559202501   T   T   T
  0.3358258489006746  0.9287976545259053  0.6236690221413084   T   T   T
  0.1859836394497264  0.5827971166558275  0.3631301152964538   T   T   T
  0.8205412337343514  0.5581665979350566  0.1038105985743715   T   T   T
  0.7135550457381371  0.9061663956156925  0.8705006695419869   T   T   T
  0.0319261725974789  0.8504053244513418  0.1247563949682579   T   T   T
  0.5030302873411501  0.6440041553939636  0.8778563925506303   T   T   T
  0.2284787020062657  0.9055895550150213  0.8878027224419496   T   T   T
  0.3500766697545208  0.6428178803409024  0.1455376344059185   T   T   T
