Sr Co O 
 1.0000000000000000
     4.8006172130050144   -2.8392140883435171   -0.9940814147422613
     4.6551474451471941    8.4206837142586419   -0.4383494012295582
    -1.8057852970017099    0.4815666451575034    9.7449718297644452
 Sr  Co  O  
   8   8  20
Selective dynamics
Direct
  0.3942329829888990  0.1236752210603603  0.8499586938739827   T   T   T
  0.1146987297637007  0.3794401945924127  0.1661542888406952   T   T   T
  0.1527696151003877  0.0386182628353029  0.3636044936063638   T   T   T
  0.2902111362859339  0.4562676474583720  0.6003197488304234   T   T   T
  0.9406137446553752  0.6257091407810570  0.8387085074875816   T   T   T
  0.5366753543484367  0.8446200163821568  0.1020977719814265   T   T   T
  0.6806970253996054  0.5997865560469697  0.3839501632432368   T   T   T
  0.8079140014484735  0.9022653110103812  0.6181362050492643   T   T   T
 -0.0162391432503762 -0.0148431466476544 -0.0311694407383066   T   T   T
  0.7515239473196930  0.2560930211615107  0.5114376967592881   T   T   T
  0.6526403832672760  0.2403958078550822  0.2312061100894212   T   T   T
  0.9100595731595404  0.2936405333150205  0.8072690629641065   T   T   T
  0.5169461735808467  0.4860041373218569 -0.0262936035445127   T   T   T
  0.2416158481438687  0.7502566383661897  0.4881939827461508   T   T   T
  0.1300200267698985  0.7243887348676697  0.2253191896435342   T   T   T
  0.3808987450126908  0.7933373872072610  0.7543678679004584   T   T   T
  0.9654197229530984  0.2774361610359946  0.4023730093888817   T   T   T
  0.4459040310466950  0.2310162861675105  0.3485273171330503   T   T   T
 -0.0817990306719420  0.1527142601615289  0.6636431327617823   T   T   T
  0.7355544241434594  0.4019505272726654  0.6443432241105707   T   T   T
  0.2428594208538161  0.3865422254615823  0.8311273490363049   T   T   T
  0.6013714827153545  0.4173650713969780  0.1599612540442444   T   T   T
  1.0612520699374204  0.1725731177804717  0.9599675834110067   T   T   T
  0.7967157828661804  0.4066281264679280  0.9282374917963858   T   T   T
  0.6888370201119095  0.0935061596583048  0.1224674934880801   T   T   T
  0.4386511436991368  0.8236186262066422  0.3858374497417443   T   T   T
  0.0752781077748445  0.6819766610906312  0.6154338647421635   T   T   T
  0.9311100637826413  0.7967334615742339  0.3335641196013572   T   T   T
  0.5362223155284920  0.6964936684886509  0.6326762513609999   T   T   T
  0.2775864614001043  0.9229740581903928  0.6060855494938125   T   T   T
  0.1948443924084036  0.5778213357355952  0.3628229978021088   T   T   T
  0.6682645152927082  0.9191723845757076  0.8500751447022976   T   T   T
  0.0993153881569866  0.8941839435045472  0.1316677609271392   T   T   T
  0.5190690810469294  0.6580724573437639  0.9028599885789442   T   T   T
  0.1856153703352924  0.8872220881293210  0.8632882815987150   T   T   T
  0.2481494486312641  0.6248436038610459  0.1050798028823060   T   T   T
