Sr Co O 
 1.0000000000000000
    -0.0249648532202118    5.6374338066985814   -0.0327584820761604
    -9.5054686079986013    0.0741555096761518    1.5214251445175688
    -1.5708155696409511   -0.0847261436341635    9.4986702669776797
 Sr  Co  O  
   8   8  20
Selective dynamics
Direct
  0.0148721803852166  0.7237871986922343  0.8736044136179746   T   T   T
  0.0172557928929145  0.2874193529905850  0.1062492628846811   T   T   T
  0.0366903284613011  0.8883900822473976  0.3649274118811809   T   T   T
 -0.0027633335219595  0.0870337289987166  0.6489915845337857   T   T   T
  0.4967892942783203  0.2027386567518633  0.8373367950085552   T   T   T
  0.5078850747472053  0.8232402836430941  0.1079632471608685   T   T   T
  0.4483282607793956  0.3701410164602427  0.3804162872645728   T   T   T
  0.4986507207753424  0.6240973474982972  0.6544019991817642   T   T   T
  0.0061147260805595  0.0070937962192370 -0.0035094009921676   T   T   T
 -0.0328878085075319  0.4861948465489569  0.5084346224574217   T   T   T
  0.0022212899645654  0.6111294804400595  0.2213584313054996   T   T   T
  0.0243660536882980  0.3931818659199804  0.7824453600187811   T   T   T
  0.5050423834977229  0.4989359743222488  0.0182829174248931   T   T   T
  0.4943305802285914 -0.0127260761604389  0.4955782515629324   T   T   T
  0.5116070160830909  0.1006904894359729  0.2149652369479934   T   T   T
  0.4994207311315160  0.8997402387729162  0.7636934791343926   T   T   T
  0.1664453667921781  0.6215326648943810  0.4015575797350499   T   T   T
  0.6832350369579350  0.4305963310990136  0.5689932355092797   T   T   T
  0.1768577198334127  0.3450089737546383  0.6229599144587474   T   T   T
  0.0507198133728326  0.8115239656977843  0.1304992218630023   T   T   T
 -0.0643825387558021  0.1987833188794474  0.8634965659867705   T   T   T
  0.2060009169451973  0.5047717846025989  0.1458622503699713   T   T   T
  0.8171788099926649  0.4901737350451132  0.8616534719271211   T   T   T
  0.3014126649239007  0.4379846742597880  0.8670076199687536   T   T   T
  0.7017540297337942  0.5651869473534250  0.1936575307153271   T   T   T
  0.5188171121970344  0.8991186636867166  0.3518789109928953   T   T   T
  0.5215696972567113  0.0986720341958219  0.6203681600359486   T   T   T
  0.2535531833441451  0.8576584678889937  0.6352156628048762   T   T   T
  0.7280631655175026  0.8591313375481319  0.6265341025497659   T   T   T
  0.2794921233034403  0.1261912893724413  0.3605341576485794   T   T   T
  0.5767293581392862  0.3029339400874780  0.1479305236756230   T   T   T
  0.4804533030274922  0.6985180920602981  0.8991078841687156   T   T   T
  0.7959076347344117  0.0476078023026116  0.1434921670857402   T   T   T
  0.2492581095818647  0.9660405766212856  0.8648624721655593   T   T   T
  0.7537995760892264  0.9399487110885456  0.8855040252860954   T   T   T
  0.2752114530774996  0.0795285440858403  0.0803445722017727   T   T   T
