Sr Co O 
 1.0000000000000000
     0.1085438466957526    5.5711058939223514   -0.0258949853291420
     9.4890765092813449    0.1506153426307968   -1.4157250558709933
    -3.3615331332940155   -2.7963006935178192   -8.8028156875780361
 Sr  Co  O  
   8   8  20
Selective dynamics
Direct
  0.6039271114509408  0.8404102339558818  0.1733173242416798   T   T   T
  0.9425594636905692  0.6406538151418985  0.9065564091507355   T   T   T
  0.8128728126623931  0.9420533004254832  0.6025421770472411   T   T   T
  0.7330647247836024  0.5619109783803898  0.3735960654270978   T   T   T
  0.0927200960636287  0.3822516046181874  0.1372813646600992   T   T   T
  0.4451179875132782  0.1671621644380507  0.8510328090161823   T   T   T
  0.2965196464233130  0.4274608826009001  0.6285477773941717   T   T   T
  0.2114819671024634  0.0519239270149714  0.4076782187116643   T   T   T
  0.0819297837145430 -0.0013633236645395  0.0315375086283709   T   T   T
  0.7533227392888987  0.2475063463933156  0.4811563617131264   T   T   T
  0.8701369929705607  0.3076134309550252  0.7473492765911105   T   T   T
  0.6691051820113793  0.1826292730270612  0.1916708622243975   T   T   T
  0.5129624680202242  0.5053124557228471  0.0093682130191083   T   T   T
  0.2871701125660242  0.7442554698220245  0.5200594237745160   T   T   T
  0.3107702440949466  0.8037619168433987  0.7949952396283698   T   T   T
  0.1494802039579854  0.7146191495896843  0.2576278395105743   T   T   T
  0.7720657712545201  0.4319646142131176  0.5879199815017840   T   T   T
  0.6351501595809366  0.0873739241420827  0.3386757677195188   T   T   T
  0.0546968650663040  0.1823333828860328  0.6346892110954016   T   T   T
  0.9385599031696025  0.2855950229255870  0.3550282667626210   T   T   T
  0.5797711961372363  0.1941691955842783  0.6123187129856580   T   T   T
  0.5456028977945317  0.3526578945171964  0.1351469251935571   T   T   T
  0.1639523491392143  0.3976536198809041  0.8708004933088225   T   T   T
  0.4127203890075795  0.0541343635073047  0.0523273056512154   T   T   T
  0.8705846145399792  0.1452629546773990  0.0504460019045999   T   T   T
  0.6700517754117710  0.4002077571006042  0.8643461096998490   T   T   T
  0.2387791063882930  0.5708130129263100  0.3801097866249366   T   T   T
  0.3959041869921517  0.9114021388193072  0.6747188348850806   T   T   T
  0.9775330429234896  0.8185844172285113  0.3922561412981544   T   T   T
  0.4559930597322197  0.8084471770818018  0.4006289723653526   T   T   T
  0.1148303439910353  0.6704518856442239  0.6256029235355124   T   T   T
  0.0715042612242591  0.8744604603715603  0.1534343082770159   T   T   T
  0.4890931356889509  0.6896311421565839  0.9050968811846706   T   T   T
  0.8493029642086776  0.6060946870869861  0.1417998239152301   T   T   T
  0.3284737256719778  0.6176211047377975  0.1275123089414106   T   T   T
  0.0189389877292449  0.8826295980616098  0.8441247468533541   T   T   T
