Sr Co O 
 1.0000000000000000
    -0.0091644146218192    5.4403608524607350    0.0503504741080289
     9.8414774227266300   -0.0178698416389151   -1.3360965685808965
    -3.5263093338253459   -2.8080582209422524   -8.7452493203818396
 Sr  Co  O  
   8   8  20
Selective dynamics
Direct
  0.5951180271014601  0.8342053115148766  0.1677287637326151   T   T   T
  0.9387754802108231  0.6611351461242709  0.8741996443334343   T   T   T
  0.8113430690283782  0.9214549341730703  0.6325750777352939   T   T   T
  0.6919094286530211  0.5822012173615709  0.3989449789036557   T   T   T
  0.0834849709634655  0.3687789509536306  0.1240535966192261   T   T   T
  0.4367170073894817  0.1649376834704626  0.8301903240418409   T   T   T
  0.2987271895560910  0.4747801671800420  0.6230343700857309   T   T   T
  0.2160732504967109  0.0326728601677693  0.4044462287795264   T   T   T
  0.0200378019070567 -0.0058426928085199  0.0416329948173431   T   T   T
  0.7626581528331607  0.2334835683674020  0.4801361312095117   T   T   T
  0.9134175618658703  0.2957583193809260  0.7393174411998236   T   T   T
  0.5666925478997844  0.1600534971352510  0.1661802673047276   T   T   T
  0.4921427098911112  0.5247401684798790  0.0030427358429723   T   T   T
  0.2463132266366625  0.7496865569601293  0.5197651998138988   T   T   T
  0.3578406770002270  0.8128387811837100  0.7903552689396945   T   T   T
  0.1334877074106276  0.6964082815355356  0.2483360949395360   T   T   T
  0.7553944561202894  0.4137003523305431  0.5885266313792433   T   T   T
  0.7264526718660804  0.0821731294380531  0.3257431309443603   T   T   T
  0.1146055725982056  0.2253108581616549  0.5892193481586054   T   T   T
  0.6288505470972107  0.1630076201925099  0.6140759509182262   T   T   T
  0.9542509724577379  0.2026604772969409  0.8762566136270189   T   T   T
  0.5844593898295926  0.3202942141591184  0.1119322108662893   T   T   T
  0.2060132028417072  0.4285207535648649  0.8526241785799553   T   T   T
  0.2255968246948733  0.1443934014565017  0.1893143369387934   T   T   T
  0.6650807012980137  0.0224247732949946  0.0191918257804799   T   T   T
  0.3031399504147308  0.9310914426914154  0.6564609144912621   T   T   T
  0.1866086088557602  0.5661526525945647  0.3812988688461088   T   T   T
  0.5494027394700375  0.7161751557299344  0.6642111764292918   T   T   T
  0.9527729985663823  0.7935312193220768  0.3797851421981314   T   T   T
  0.4297246481795788  0.8027313438067226  0.4007539104297549   T   T   T
  0.0535849236038899  0.6899226376445740  0.6281040012991451   T   T   T
  0.4553442366372571  0.6867678412296717  0.9057778913981086   T   T   T
  0.0845592211832608  0.8420988199486851  0.1402698825633018   T   T   T
  0.8377218081492761  0.5772247648448862  0.0890399202484804   T   T   T
  0.3621172732328468  0.5962540829780909  0.1587070917772377   T   T   T
  0.1068806067600309  0.9035716045812007  0.8793679582992776   T   T   T
