Sr Co O 
 1.0000000000000000
    -4.7683770709180822    2.8735935848120207    0.7212372107423092
    -4.6428350675967565   -8.3578559246682875    0.7636405487334744
     3.1633825532071431    2.6937697662241371    8.7530790823713147
 Sr  Co  O  
   8   8  20
Selective dynamics
Direct
 -0.0146949714512331  0.2893577743074958  0.8361330382559589   T   T   T
  0.9948150010461648  0.7446519155577243  0.1688485605939719   T   T   T
 -0.0116818392824259  0.1192927509403862  0.4170725460503006   T   T   T
  0.9814643687588939  0.8523268397265826  0.6057790891945548   T   T   T
  0.4747414601431749  0.7743445128776946  0.8679875358702897   T   T   T
  0.4951578588133556  0.2005929096226723  0.1572411392106191   T   T   T
  0.4690933955768924  0.6597174547548368  0.3951420626486161   T   T   T
  0.4703421709468010  0.3777351430816138  0.6009720421532239   T   T   T
  0.0014835329440611 -0.0051323180108322  0.0211171024724294   T   T   T
  0.4940329623991380  0.0076212115550808  0.5142679884495814   T   T   T
  0.5088789283784138  0.9153871448477442  0.2414736365896216   T   T   T
  0.4900813974689922  0.1020866118981207  0.7722945861423750   T   T   T
  0.5685879902981130  0.5001777788026824  0.0252115837959368   T   T   T
 -0.0189074159693829  0.4907931261754421  0.4854114771274580   T   T   T
  0.0668119947954005  0.4068813641811303  0.1974803096831750   T   T   T
  0.9285434810397066  0.5943926964749485  0.7531924558759260   T   T   T
  0.2598193205309395  0.8917215945786588  0.3753379439567772   T   T   T
  0.7554932513579746  0.1012766004179740  0.6449071313899214   T   T   T
  0.7137421399586101  0.8783873712371979  0.3893801017340787   T   T   T
  0.2735239893848232  0.1460790561176257  0.6349422004695837   T   T   T
  0.4439739096420152  0.9045797271971738  0.6643973877165877   T   T   T
  0.5224072934798550  0.1182025926330656  0.3843454797543273   T   T   T
  0.7771982835631597  0.9800920957211133  0.1547798861099956   T   T   T
  0.5000329507586060  0.7066844365856020  0.1135238726831327   T   T   T
  0.5341053324417288  0.2698450806790443  0.9170930066379042   T   T   T
  0.2966489552961601  0.9518779952756201  0.0943085199333734   T   T   T
  0.2074241809598752  0.6198430180151832  0.6600474431085906   T   T   T
  0.1663115108690608  0.3442975948696134  0.3582340497371703   T   T   T
  0.7279779761990927  0.6081568673314816  0.5793815145393791   T   T   T
 -0.0546387494517923  0.3871299713345578  0.6214870888914784   T   T   T
  1.0119818968008600  0.5916586806095414  0.3522813298123172   T   T   T
  0.4110285123214401  0.4540031730431447  0.1702078922535925   T   T   T
  0.6679036880460532  0.5332128303562388  0.8461658947464398   T   T   T
  0.0437518615593395  0.1960994978558808  0.0539192987958957   T   T   T
  0.9344918961027917  0.8165670664307783  0.8626789484425339   T   T   T
  0.9140716275433883  0.4780575505473836  0.0689555205382741   T   T   T
