Sr Co O 
 1.0000000000000000
     0.0353016471499732    5.5337348230010477   -0.0698726537658045
     9.4285403125781997    0.0615335605118665   -1.5407804129956191
    -3.1675602446595343   -2.6865035935456900   -8.7202593011506586
 Sr  Co  O  
   8   8  20
Selective dynamics
Direct
  0.5656817345692235  0.8545261348487109  0.1295238703015369   T   T   T
  0.9105150225774415  0.6557177426886871  0.8407653389141529   T   T   T
  0.8114901930368043  0.9265268691810326  0.6267318594555698   T   T   T
  0.7064668530758700  0.5701114741879056  0.4016566351245005   T   T   T
  0.1086216732194857  0.3398807988812418  0.1769001555751455   T   T   T
  0.4159814379445791  0.1414173825801933  0.8512638485369470   T   T   T
  0.3007817819665489  0.4310999913334501  0.5964580015154595   T   T   T
  0.2108275857878554  0.0575495994712723  0.3960955947025849   T   T   T
 -0.0018232226279662  0.0163333447227203 -0.0022869186140933   T   T   T
  0.7659323139663751  0.2476789202826589  0.5169896146195471   T   T   T
  0.8438834387171462  0.3031201883045890  0.7752277963940499   T   T   T
  0.6364268454398924  0.1980862587323947  0.2360793657341404   T   T   T
  0.5426842172544206  0.5029448254727934  0.0253566174553828   T   T   T
  0.2429676262878276  0.7474080617151855  0.4851913683672261   T   T   T
  0.3714531296537175  0.8069552884671443  0.7554481288053634   T   T   T
  0.1165848826625931  0.6942085276834777  0.2137857333068778   T   T   T
  0.8184081839106451  0.4383864692350512  0.6530612427041346   T   T   T
  0.0577876564557109  0.2068643530970387  0.6579904119945496   T   T   T
  0.4728224606201018  0.2836462765237793  0.3814696110407621   T   T   T
  0.9357163923716555  0.2849380148102673  0.3844201381812782   T   T   T
  0.5813197463848353  0.1667759570583077  0.6191618414301449   T   T   T
  0.9536567771521000  0.1975956298020277  0.9180280522082653   T   T   T
  0.5802231937746808  0.3724874065133844  0.1469285545342067   T   T   T
  0.3420907045368849  0.0878754287912026  0.1412835426237737   T   T   T
  0.8497869149310233  0.0714570151653710  0.1589235383045952   T   T   T
  0.5781914149353019  0.4016993676676675  0.8507307660638049   T   T   T
  0.2797551037796204  0.9300630056158768  0.6048010287758854   T   T   T
  0.1970305501042361  0.5620451225192991  0.3653645169568751   T   T   T
  0.5432274975649630  0.7008418813029145  0.6219950969913232   T   T   T
  0.9472315115984183  0.7984760316038620  0.3517234625059164   T   T   T
  0.4049240935379629  0.8022078658962992  0.3467624771507761   T   T   T
  0.0892701106636801  0.6902070947061639  0.6245756222416048   T   T   T
  0.6727216009627472  0.8972998454110113  0.8771050772177248   T   T   T
  0.8116670480665961  0.6397153851682752  0.0767701913355142   T   T   T
  0.2849269706598053  0.6202992275794285  0.0641708738938763   T   T   T
  0.1727667524358577  0.8875531135993922  0.8795471334900623   T   T   T
