Sr Co O 
 1.0000000000000000
     4.7833535044523181   -2.7089477193603466   -0.7270854957385293
     4.8208553050532217    8.1581803629427991   -0.6874618255447700
    -1.5242903251343538    0.0212670710570129    9.4586082555713027
 Sr  Co  O  
   8   8  21
Selective dynamics
Direct
  0.4104015380904704  0.1365665399771451  0.8581601353680841   T   T   T
  0.0880934657197659  0.3561924614408753  0.1431184394870237   T   T   T
  0.1942638414438879  0.0788007450451303  0.3856242166454414   T   T   T
  0.2742555190342709  0.4286681285392179  0.6024013028620331   T   T   T
  0.9406671458495154  0.6353095167258686  0.8654460226157634   T   T   T
  0.5775102549331910  0.8671692381373614  0.1536005571603693   T   T   T
  0.6947735983874554  0.5656487805263468  0.3732251343260317   T   T   T
  0.7935274487151558  0.9530978165596480  0.6008952091341224   T   T   T
 -0.0113578053922462  0.0045206278705357 -0.0062636653831673   T   T   T
  0.7422336926102967  0.2610165450230857  0.4924183346832681   T   T   T
  0.6256799439353995  0.2068729038719866  0.2229765177123480   T   T   T
  0.8738019401159720  0.2902662399245088  0.7573141454972558   T   T   T
  0.5031447864760953  0.5061839957566303  0.0065217905834147   T   T   T
  0.2372862574445432  0.7624960059082529  0.5103761689576746   T   T   T
  0.1272514890114601  0.7026373396063289  0.2448857994458140   T   T   T
  0.3808709882928121  0.7900833860405444  0.7905908752051867   T   T   T
  0.9102895905061889  0.3091451827737576  0.3578404079281404   T   T   T
  0.5693883670112713  0.2121065481155497  0.6263954838712179   T   T   T
  0.4599638853775508  0.3212431956402732  0.3537093499175852   T   T   T
  0.0395198950221027  0.1882406484945215  0.6054161729247830   T   T   T
  0.8018146227094407  0.4369480404145071  0.6247408406601501   T   T   T
  0.6680360408695381  0.0863438998189934  0.3702719350868715   T   T   T
  0.3279114765091402  0.1128908710992084  0.1114037009705252   T   T   T
  0.1383035242011503  0.3862762483733138  0.8868787434151154   T   T   T
  0.6057640320231303  0.3396224572242996  0.0792961428345716   T   T   T
  0.8902043702894239  0.1286938753483309  0.8514525106808100   T   T   T
  0.8494923885332953  0.0809561997449241  0.1396576314358122   T   T   T
  0.4187742939294060  0.8115017079695201  0.3798930223855909   T   T   T
  0.0805667765429081  0.7132697053827418  0.6477810450723566   T   T   T
  0.9467141659350563  0.8219433428671480  0.3576076238763446   T   T   T
  0.3539079175474220  0.9208182949565070  0.6505497112915513   T   T   T
  0.2028323036599183  0.5784874826205391  0.4065231990820699   T   T   T
  0.8377560984853901  0.6112070528323270  0.1171610441789260   T   T   T
  0.6857487471309762  0.8646616123064431  0.9007489600965525   T   T   T
  0.4601647571728781  0.5987657300821577  0.8435237284268201   T   T   T
  0.1885889780092050  0.8677591247828385  0.9303984444605129   T   T   T
  0.3308531245242527  0.6165886920385385  0.1341591558602836   T   T   T
