Sr Co O 
 1.0000000000000000
     4.7032332267750929   -2.7871455832299894   -0.8040047889708426
     4.6380672446527216    8.2723799446741531   -0.7602421281923784
    -1.6387546992304269    0.0625086682418093    9.5145245310659998
 Sr  Co  O  
   8   8  20
Selective dynamics
Direct
  0.4465781858286476  0.1106772876244393  0.8847516166360034   T   T   T
  0.0745649565055827  0.3460535532528661  0.1542680244093177   T   T   T
  0.1869769462373372  0.0707487530534249  0.3831916099513266   T   T   T
  0.3069935879107338  0.4531795324465940  0.5929664637474892   T   T   T
  0.9260342036441536  0.6540599856661022  0.8404184896002813   T   T   T
  0.5670262354220923  0.8652097218633107  0.1456034330357738   T   T   T
  0.6974935608569791  0.5722663385074179  0.3859785030233218   T   T   T
  0.8254934135213109  0.9217059320636328  0.5988830028980678   T   T   T
 -0.0052960631122857  0.0032536837913827 -0.0020026568752534   T   T   T
  0.7793748537608818  0.2657111064684296  0.5051338598748958   T   T   T
  0.6094592442827497  0.2047411982755777  0.2367921222708469   T   T   T
  0.9298079050215073  0.2878640124267950  0.7681332235620678   T   T   T
  0.4831089264887755  0.5143136409827542  0.0154070176481816   T   T   T
  0.2641104039783912  0.7569695002927881  0.4943686582140597   T   T   T
  0.0975492496218959  0.6977421274053013  0.2292857934287495   T   T   T
  0.3950166898948653  0.7864668661887672  0.7657558613006633   T   T   T
  0.9077782080451535  0.3203072662866452  0.3586742296550774   T   T   T
  0.4627903070359407  0.3112130460238722  0.3809012676109750   T   T   T
  0.1002044016888074  0.2141864185754457  0.6290636370925955   T   T   T
  0.7987187941865512  0.4240010091443938  0.6541224293829407   T   T   T
  0.6970808270776926  0.0862259428044336  0.3926820120528507   T   T   T
  0.2981514929795421  0.0870858856708146  0.1393800568156790   T   T   T
  0.5161210128533663  0.3387746282381707  0.0797627528290445   T   T   T
  0.9093052129912285  0.1720472138068691  0.8907140169932932   T   T   T
  0.8103882147217336  0.0889929637726848  0.1359144230949672   T   T   T
  0.4113548037792397  0.8033117374307304  0.3485042975284038   T   T   T
  0.0913750836625428  0.6999629679993417  0.6210461345128480   T   T   T
  0.9685287696570064  0.8203222515082885  0.3673368519058842   T   T   T
  0.5598395518605433  0.7007026768766410  0.6227889437653308   T   T   T
  0.3480216489540037  0.9321284697086697  0.6356328461611773   T   T   T
  0.1970498496497543  0.5730937595621405  0.3786460594341504   T   T   T
  0.7690059200818112  0.6212650255505542  0.1413255021226238   T   T   T
  0.7096642825704280  0.8753789958853334  0.9071695594300164   T   T   T
  0.4290229961789096  0.5989420096060467  0.8511124307283429   T   T   T
  0.1981224172539083  0.8849547683678828  0.8915856044925679   T   T   T
  0.2071839096467546  0.5901395292593905  0.0807016989090715   T   T   T
