Sr Co O 
 1.0000000000000000
    -4.8153763927891946    2.7847413265342680    0.7471210160817983
    -4.7968340548317316   -8.3088832758092384    0.7931908941004524
     3.2181643105461308    2.7187106463316808    8.6924365816847082
 Sr  Co  O  
   8   8  20
Selective dynamics
Direct
 -0.0325942917576542  0.3035119273784932  0.8754172061400958   T   T   T
  0.9917739115579217  0.6980235502149029  0.1577837038545752   T   T   T
  0.0127806565885741  0.1508090904395359  0.3978624840859445   T   T   T
  1.0036107359216107  0.8514328434521233  0.5808494571396288   T   T   T
  0.5052741257937416  0.7795613557831380  0.8593683571947761   T   T   T
  0.5138976244375731  0.2374994920824977  0.1688691975129952   T   T   T
  0.5099420942906193  0.6039849151111046  0.3756378521319824   T   T   T
  0.5055416687152227  0.3853286416741142  0.6115272208797091   T   T   T
  0.0779974394143960 -0.0002135151404970 -0.0031663857895895   T   T   T
  0.4907853471561840 -0.0044048453239454  0.4882278495003897   T   T   T
  0.4925092568665290  0.9008205215700547  0.2245346391534415   T   T   T
  0.4460610826773688  0.1185251604699188  0.7671354979778640   T   T   T
  0.5034936648250351  0.5037667933818930  0.0149451403411988   T   T   T
  0.0065855216413895  0.5069477692429903  0.5146441843738343   T   T   T
  0.0084371571293097  0.4061416726767438  0.2398973644837049   T   T   T
  0.9713661854096129  0.6076212150146867  0.7816186010052117   T   T   T
  0.2264993148876604  0.8992591122498780  0.3679894717143261   T   T   T
  0.7183778373169651  0.0565879598207544  0.6497068670026550   T   T   T
  0.6843258373642045  0.8404179827571453  0.3653594368276066   T   T   T
  0.2790456415242153  0.1380833327477294  0.5998304579120817   T   T   T
  0.5767104088388898  0.0956880243959607  0.3463934273367638   T   T   T
  0.2424899746555334 -0.0000081617342197  0.8190532600753039   T   T   T
  0.4331604450090092  0.7057359651095456  0.0924288194729353   T   T   T
  0.5036164756740898  0.3140646932547662  0.8650454534192882   T   T   T
  0.3798465965225813  0.9787391274046059  0.0852591713826800   T   T   T
  0.7858458274940895  0.3830868484631447  0.3807191621024300   T   T   T
  0.2261407473712349  0.6315466274646354  0.6631945727365484   T   T   T
  0.2409883497973991  0.3752635798055856  0.3848599982173906   T   T   T
  0.7568214572874843  0.6384053319415927  0.6186410799529393   T   T   T
 -0.0130696334871348  0.4032658895424578  0.6530468109319029   T   T   T
  1.0374416680020722  0.6041771026417130  0.3748225608149707   T   T   T
  0.2315276964690768  0.4439222004676494  0.1036067300929297   T   T   T
  0.7588965682406627  0.5537247477389808  0.8947012176161592   T   T   T
 -0.0290061057174587  0.1846679172129853  0.1054367185302553   T   T   T
  0.9563525822269561  0.8117339135814118  0.9263343989350222   T   T   T
  0.7463761660089635  0.4611310818564252  0.1411176295558086   T   T   T
