Sr Co O 
 1.0000000000000000
    -4.6950466401599602    2.6672196331107605    0.7880258867106975
    -4.8469188293292165   -8.2096610846895892    0.8678816168690143
     3.0454879888009598    2.6725179764687090    8.7178954231910275
 Sr  Co  O  
   8   8  20
Selective dynamics
Direct
  0.0037207599841913  0.2966539087300750  0.8623519064510267   T   T   T
  1.0016284872807131  0.7018776193231396  0.1146427635167111   T   T   T
 -0.0249635087821533  0.1396868094654427  0.4067379190781569   T   T   T
  1.0087657618227130  0.8578617758421796  0.6203583633349248   T   T   T
  0.4953432939410192  0.7586471006030967  0.8430537195807474   T   T   T
  0.5235403211997804  0.2214982052098188  0.1345916595560103   T   T   T
  0.4933489379424463  0.6315725948363181  0.3816569637873144   T   T   T
  0.5020357496331308  0.3754699503317436  0.6402810114239996   T   T   T
  0.0266367177687227 -0.0004905546908684  0.0094859071721247   T   T   T
  0.4591913084825954  0.0081812246949475  0.5006258227883782   T   T   T
  0.5077510462840453  0.9234080140980639  0.2316298410632198   T   T   T
  0.4895810868615618  0.0787854331717775  0.7666091808038334   T   T   T
  0.5004744742070513  0.5011791791723241  0.0005081160088868   T   T   T
 -0.0151495641587085  0.5043244573022456  0.4956112883585556   T   T   T
 -0.0052134976118513  0.4158838398377861  0.2236321561607904   T   T   T
  0.9987354817186787  0.5844649972661122  0.7601837229927362   T   T   T
  0.2687216637290675  0.8793676108962268  0.3551833306464051   T   T   T
  0.7070513852498745  0.1141538747923547  0.6183944201090816   T   T   T
  0.2117025510361258  0.1133834301244841  0.6377984451814023   T   T   T
  0.5015890614948154  0.8836034371922137  0.6208960914885726   T   T   T
  0.4652463942922883  0.1162851558558658  0.3634431961520783   T   T   T
  0.7996503644044048  0.9734323922295309  0.1583202084310403   T   T   T
  0.3273655689297060  0.0170254272961044  0.9126776573833669   T   T   T
  0.4904428862901790  0.7432425820813958  0.1060992580300231   T   T   T
  0.5349459054032414  0.2641303711915902  0.8874191493852551   T   T   T
  0.7778114676046778  0.3750993432799339  0.3616634141643576   T   T   T
  0.2340822381323192  0.6123173527838646  0.6178740696240885   T   T   T
  0.7608079076534423  0.6237074804350641  0.6280910866422984   T   T   T
  0.0080147893884457  0.3859271955249806  0.6180731957490190   T   T   T
  0.9950181942132156  0.6169292007914641  0.3701020113484293   T   T   T
  0.2786869834447609  0.4611283224378602  0.1499421206455586   T   T   T
  0.7439127883708487  0.5298494598184802  0.8631525494104937   T   T   T
  0.0102762928311698  0.2068000819268943  0.1014308512921993   T   T   T
  0.9837612222028378  0.8055411802166793  0.8805742955822188   T   T   T
  0.2452805915233662  0.5271933205389279  0.8787446261841222   T   T   T
  0.7455055477158649  0.4871779089896106  0.1247593199087724   T   T   T
