Sr Co O 
 1.0000000000000000
    -0.0340437396137214    5.5847137332292842    0.0182143134085067
     9.5319568565554551   -0.0628917343472043   -1.4599640698146652
    -3.2283059711460687   -2.7791362693246011   -8.6939113218876169
 Sr  Co  O  
   8   8  21
Selective dynamics
Direct
  0.5499646303380018  0.8435718610277333  0.1146351340732500   T   T   T
  0.9284221322951951  0.6539922713407037  0.8786318182019861   T   T   T
  0.8119181039448129  0.9162873676926386  0.6434819329240011   T   T   T
  0.6571517623656086  0.5893039505287538  0.3529554908813663   T   T   T
  0.0693047793702704  0.3700147182904593  0.1248942210409899   T   T   T
  0.4094025313727977  0.1491276955988117  0.8268139614929751   T   T   T
  0.3155179016480419  0.4649680763624924  0.6168302862898324   T   T   T
  0.2003543760320337  0.0369774127518676  0.3755439726373227   T   T   T
  0.0059750229435699  0.0062516012969625  0.0137907668044343   T   T   T
  0.7702630380756423  0.2453103514944965  0.4954332997410392   T   T   T
  0.8790660426845329  0.2906099390782676  0.7814195807702005   T   T   T
  0.5903680926980441  0.2133144053937865  0.1977000685655020   T   T   T
  0.4773177294529382  0.5011273909202935 -0.0235713761874071   T   T   T
  0.2325951477928625  0.7490227279632387  0.4969226991771408   T   T   T
  0.3714535217590543  0.8015865601271113  0.7687559853709559   T   T   T
  0.0963769911358405  0.7033058386960227  0.2269368400281499   T   T   T
  0.5455721893482716  0.3369213645074274  0.3782504110387911   T   T   T
  1.0909919169420939  0.2231925880939155  0.5526853157401497   T   T   T
  0.6406641003777194  0.1601158488275495  0.6162508427794530   T   T   T
  0.9970057235699570  0.1573704122434427  0.8950726808357605   T   T   T
  0.5082991938923105  0.3393176437798996  0.0729078529233144   T   T   T
  0.1462221054695019  0.4221941111778096  0.8329893765290280   T   T   T
  0.3448336503437072  0.0729813388427465  0.1594970058279708   T   T   T
  0.8793447866883919  0.1401903588282285  0.1793425000660121   T   T   T
  0.6388736733556966  0.4045675844025572  0.8305259883034020   T   T   T
  0.2845550557877605  0.9244115686695660  0.6290594024578229   T   T   T
  0.1674409560540030  0.5716970268176574  0.3636380987570322   T   T   T
  0.5351903055795760  0.7026625081652633  0.6266641024829261   T   T   T
  0.9398340858200517  0.8051409918019197  0.3692063988856756   T   T   T
  0.3988741004222854  0.8067133883390347  0.3682692158669292   T   T   T
  0.0750617520221479  0.6865394936270913  0.6254724290208213   T   T   T
  0.4636588494306816  0.6615586113378661  0.8796505465561368   T   T   T
  0.0128536571270081  0.8457921768891166  0.1170139270855009   T   T   T
  0.6600195019483953  0.9334406513197763  0.8830730729732060   T   T   T
  0.8024345411590964  0.5827419180949417  0.1162152076056590   T   T   T
  0.3016310583521775  0.6048852250917816  0.1140911650218546   T   T   T
  0.1635367001153113  0.8851431452517932  0.8756499754711359   T   T   T
