Sr Co O 
 1.0000000000000000
     4.7432569748606745   -2.8679193695055210   -0.7128398518472571
     4.5469447705832611    8.2965470238929626   -0.8924391587717682
    -1.6015885644800942   -0.1338347247224553    9.6610390026723518
 Sr  Co  O  
   8   8  20
Selective dynamics
Direct
  0.4714503963853555  0.1436775035347968  0.8701700148796648   T   T   T
  0.0679771787162804  0.3739426077302068  0.1610405251914472   T   T   T
  0.1255220203512169  0.0725296762553195  0.3768086521472297   T   T   T
  0.2980934424032361  0.4597554411246118  0.6010766167346029   T   T   T
  0.9289994941051124  0.6394406705721835  0.8486689867881940   T   T   T
  0.5395512027509894  0.8349409242880312  0.1258974365218686   T   T   T
  0.7028099476654458  0.5544778138682418  0.3989974501800002   T   T   T
  0.8535646224169816  0.9140406146631824  0.6276780128915858   T   T   T
 -0.0112448769281879 -0.0256475875762495  0.0083071993135149   T   T   T
  0.7132595202647318  0.2413117252580717  0.4895368683664434   T   T   T
  0.6149665367511866  0.2081771366184391  0.2282685164992987   T   T   T
  0.9361407241119618  0.3133976508127966  0.7717335544793631   T   T   T
  0.4933062721410555  0.4963156976002928 -0.0028848676656652   T   T   T
  0.2566912363982434  0.7589506995084687  0.5023998209714944   T   T   T
  0.0727774552433013  0.7024887043412903  0.2211143342625512   T   T   T
  0.4079683092694837  0.8029619839873992  0.7689442728933417   T   T   T
  0.9208557057004276  0.3242811480309965  0.3769468942686005   T   T   T
  0.4274667433613683  0.2938174483581196  0.3678007486704141   T   T   T
 -0.0378791422021446  0.1661398601986483  0.6210075851250403   T   T   T
  0.7501618844456852  0.4137780632600480  0.6278763124773089   T   T   T
  0.6472414938263950  0.0653224425212461  0.3459166652081073   T   T   T
  0.2670229729148327  0.3843628627316042  0.8306403757725177   T   T   T
  0.4716000480119859  0.3167376865573329  0.0999266155618738   T   T   T
  0.7855065872799190  0.3567284523647380  0.9093097763395891   T   T   T
  0.8359470703778337  0.1170281515407595  0.1114483979967252   T   T   T
  0.0983563175245540  0.6932767959656561  0.6527798437442734   T   T   T
  0.9616768259953777  0.8080496934848441  0.3833289760070867   T   T   T
  0.5506324703219049  0.7027400430297538  0.6179835152472974   T   T   T
  0.3316794554664061  0.9384232614103912  0.6302599424729367   T   T   T
  0.2298267925579537  0.5927994482953738  0.3635654297711525   T   T   T
  0.7468883353546985  0.5902339346737280  0.1560983708409684   T   T   T
  0.7187631885901208  0.9194079967104336  0.8522391461125397   T   T   T
  0.1019681564703625  0.8783317899758040  0.1610585374813386   T   T   T
  0.5061733310385562  0.6619689252651105  0.8886108528236569   T   T   T
  0.2391186870239215  0.9283896434006286  0.9117075075574157   T   T   T
  0.2221591261706211  0.6084209250255659  0.0857370029275736   T   T   T
