Sr Co O 
 1.0000000000000000
     4.7279124737215863   -2.7481714533808854   -0.5650940152026239
     4.8687581754967821    8.4310684925008630   -0.6025399100275745
    -1.1977590012564874   -0.0363386447326052    9.6586383859632772
 Sr  Co  O  
   8   8  20
Selective dynamics
Direct
  0.4360633800919470  0.1632093095230140  0.9164445023085771   T   T   T
  0.0656895356817159  0.3728879495248987  0.1415348418225884   T   T   T
  0.2160894336075381  0.0776391995995569  0.3867202730354016   T   T   T
  0.3581539982217350  0.4505031361284120  0.6443936765237666   T   T   T
  0.9344320639569913  0.6366875943327367  0.8573104950182600   T   T   T
  0.4835861156137631  0.8290180920839718  0.0881648124645395   T   T   T
  0.6883684828608740  0.5158247992168705  0.3742559640951379   T   T   T
  0.8436190137705267  0.9417447112908311  0.6255723577539530   T   T   T
 -0.0374781099769806 -0.0175378740811510 -0.0325594756546903   T   T   T
  0.7942671525960406  0.2489217013094218  0.5253423463618629   T   T   T
  0.6257320426463787  0.1968089647419588  0.2616769606922858   T   T   T
  0.9300962791814096  0.3051797692482065  0.8022814627996151   T   T   T
  0.4983794812966558  0.4998663597916760  0.0070362090832255   T   T   T
  0.3262116658259864  0.7513010903279714  0.4671874182370105   T   T   T
  0.0502093351536719  0.7031862183174330  0.2041029909532517   T   T   T
  0.4057823341518605  0.8055156993303324  0.7468281243765602   T   T   T
  0.9287039193678052  0.2904247459782482  0.3492148784968235   T   T   T
  0.4796766647761887  0.3025021013607204  0.4374391878995814   T   T   T
  0.0391831544866876  0.1811195507220211  0.6632833565991941   T   T   T
  0.8522268723281665  0.4207478493468640  0.6461931184661102   T   T   T
  0.7296027768095364  0.0719604219386377  0.4111715065745023   T   T   T
  0.3891264310662765  0.0794278459880688  0.1534592520872888   T   T   T
  0.2574754333584799  0.3926136404020549  0.8682157256674823   T   T   T
  0.5371490494438889  0.3400290265396567  0.1463894406069559   T   T   T
  0.9675453063205602  0.1688005974421260  0.9425225896926002   T   T   T
  0.7459350873954218  0.4137984950027337  0.9083413868658411   T   T   T
  0.2905193138535315  0.8305367325784064  0.3061866778175642   T   T   T
  0.5792308140901358  0.6946428987843725  0.6050476995671755   T   T   T
  0.2983921344158751  0.9089742341368580  0.5861964497568384   T   T   T
  0.1726056171291902  0.5910313899877626  0.3672470320413141   T   T   T
  0.7478434855276143  0.6098188831835412  0.1541498644135044   T   T   T
  0.6489523698132933  0.9475489654987045  0.8398237637933678   T   T   T
 -0.0592990135956175  0.8461816821677207  0.0803162018521332   T   T   T
  0.4475032852044435  0.6583297890671302  0.8459378546378802   T   T   T
  0.1529123796743547  0.8788622619619539  0.8409960843513543   T   T   T
  0.2380126365238866  0.5973921358644132  0.0788747859062108   T   T   T
