Sr Co O 
 1.0000000000000000
     4.6480395935129390   -2.7887355590723191   -0.6740482808012653
     4.7896916036410149    8.4579499640183329   -1.0733796062175147
    -1.6899293709853003   -0.3767773285891091    9.5861636708907323
 Sr  Co  O  
   8   8  20
Selective dynamics
Direct
  0.4952109289061751  0.1476919889200610  0.8907531454621697   T   T   T
  0.0797617363416181  0.3356107323877255  0.1700585204967140   T   T   T
  0.1665236109655392  0.0676627299950228  0.3635856284198887   T   T   T
  0.3022268265852059  0.4645029608915245  0.6149855958670323   T   T   T
  0.9225911534903362  0.6610658949876501  0.8442995208920089   T   T   T
  0.5750463473418176  0.8628219146944314  0.1286199757373667   T   T   T
  0.6986994113612053  0.5420811388661914  0.3836500019552422   T   T   T
  0.8055595467463280  0.9321667434826815  0.6051235923436736   T   T   T
  0.0056158420875949  0.0054503211272317  0.0068870508046302   T   T   T
  0.7362565942736555  0.2548412940174651  0.5230113105278821   T   T   T
  0.6129545836118822  0.2017463728718356  0.2526823231043247   T   T   T
  0.9654695023602434  0.2966723641983784  0.7887950357545969   T   T   T
  0.4368966593690057  0.4868265904578462  0.0262532517444076   T   T   T
  0.2347438188127708  0.7545328099845170  0.4844152711211058   T   T   T
  0.0383857681330436  0.6839501294753253  0.1951390121357161   T   T   T
  0.4025402571422709  0.8035152491724936  0.7489879537952115   T   T   T
  0.9128248634800693  0.3062772307758208  0.3957206188366922   T   T   T
  0.6714757306700168  0.1890597122189717  0.6741317115130979   T   T   T
  0.4333453128646910  0.3091626406272506  0.3869497687854875   T   T   T
  0.8537439757648005  0.4225697025747610  0.6691122264169447   T   T   T
  0.6630181697690740  0.0736633223599330  0.3882710282638910   T   T   T
  0.3230510111183081  0.0784190649400729  0.1222702261505353   T   T   T
  0.3036687331130093  0.3704018823463474  0.8373442303009448   T   T   T
  0.5726144687521707  0.3418523820462973  0.1311270208058524   T   T   T
  1.0170196055183900  0.1779419981663522  0.9092248123241445   T   T   T
  0.8210424161592349  0.0968915896548737  0.1436670601734037   T   T   T
  0.0795380859423429  0.7036479070299376  0.6360680291507369   T   T   T
  0.9791115773312317  0.8239560823566046  0.3618554239767870   T   T   T
  0.5435327300387873  0.6968803263949377  0.5786596433175686   T   T   T
  0.3093039678147816  0.9371249882453164  0.6302975211358570   T   T   T
  0.1685254693470623  0.5835017676134019  0.3400644799543185   T   T   T
  0.6659687749651868  0.6218569568702282  0.1521066795401160   T   T   T
  0.7358328096481797  0.9126035666284587  0.8512862869591284   T   T   T
  0.0682119007020308  0.8266335001697745  0.0987479548004256   T   T   T
  0.4482969078677688  0.6870927937307816  0.8686970424989429   T   T   T
  0.1098910543946504  0.5388235997982159  0.0478512119977469   T   T   T
