Sr Co O 
 1.0000000000000000
    -0.0356959395387437    5.4538208566468729   -0.0182264910272423
     9.6303579645111732   -0.0355520666290918   -1.5685668270751754
    -3.0644290439097159   -2.6721766928083110   -8.8544129116177217
 Sr  Co  O  
   8   8  20
Selective dynamics
Direct
  0.5591817913055591  0.8363812925531132  0.1094192886723594   T   T   T
  0.9310386915085439  0.6808971057026745  0.8476137638661247   T   T   T
  0.8198080600416046  0.9269953394781196  0.5980796366272513   T   T   T
  0.7040135448832691  0.5863092650466885  0.3894685228860514   T   T   T
  0.1046017126063286  0.3572008262077960  0.1604106740853715   T   T   T
  0.3933820136259823  0.1323823505760211  0.8476952578868042   T   T   T
  0.3271165681441099  0.4812782884042820  0.6272448234586309   T   T   T
  0.1934030072635739  0.0111324905470039  0.3486482342102840   T   T   T
 -0.0022676593707343  0.0054288490143932 -0.0076027805281066   T   T   T
  0.7721539736690707  0.2631087217956300  0.5055718333081541   T   T   T
  0.8548237385255727  0.3123514507933434  0.7759164330528324   T   T   T
  0.6262522191337372  0.1645904192913923  0.2309377418277824   T   T   T
  0.5156212604892052  0.5215873926469824 -0.0125614749806146   T   T   T
  0.2609241206707570  0.7495303818642602  0.4843191778873873   T   T   T
  0.3806017191282607  0.8132119920171215  0.7503648845747981   T   T   T
  0.1094955494312260  0.6820917979265663  0.2175534425010488   T   T   T
  0.7965751097693382  0.4309623803902525  0.6341867893454164   T   T   T
  0.7098388115222579  0.0825248238085147  0.4059488870080361   T   T   T
  0.0289407937116157  0.2142863529162418  0.6522090679960187   T   T   T
  0.9808082794535309  0.2130456407929735  0.9125419548459589   T   T   T
  0.5540599857159078  0.3272253655539598  0.3463977223645699   T   T   T
  0.3429649263528969  0.0763953825910465  0.1022527183534848   T   T   T
  0.8934900573682376  0.1230974178168240  0.1580974860151164   T   T   T
  0.5824025021456046  0.3782511955086138  0.8477102579558787   T   T   T
  0.3242010267072775  0.9345887235668523  0.6030015121419874   T   T   T
  0.1984136493570410  0.5650852463539382  0.3724155779261066   T   T   T
  0.5625109158539743  0.7108580568574548  0.6226264109104969   T   T   T
  0.9592016132338843  0.7928337417756993  0.3533415540729132   T   T   T
  0.4177359882822851  0.7873168955678769  0.3385711181185899   T   T   T
  0.0919224995174185  0.7042845542650084  0.6170479391493613   T   T   T
  0.4340107443077336  0.6628643411366449  0.8673388901876280   T   T   T
  0.0397866446028566  0.8207188991163209  0.0984283031936732   T   T   T
  0.6683823043525731  0.9298368076914646  0.8824905966889626   T   T   T
  0.8050422942825625  0.5591423236840835  0.1386895909545879   T   T   T
  0.2681663720774426  0.5581756979445606  0.0818532530869143   T   T   T
  0.1380449693493241  0.9116778654435690  0.8390708543643151   T   T   T
