Sr Co O 
 1.0000000000000000
    -4.6920390270166479    2.8082361963373663    0.7989006526488396
    -4.7041140258258931   -8.3912075657664644    0.8713893534218916
     2.9289048777555360    2.7080533047198041    8.6677453037811638
 Sr  Co  O  
   8   8  20
Selective dynamics
Direct
  0.0084003471889007  0.2800206755304523  0.8488365836637415   T   T   T
  1.0213523907104118  0.7212284278654620  0.1406920161484011   T   T   T
  0.0030347963036875  0.1606940743016710  0.4104944071294701   T   T   T
  1.0382867275246102  0.8602915120883217  0.6229997093513162   T   T   T
  0.5015811658435076  0.7753213479409115  0.8484184902192187   T   T   T
  0.4841063446986525  0.2040010404677166  0.1570860137790070   T   T   T
  0.5042645930428087  0.6177814373445126  0.3910757025358443   T   T   T
  0.4945286081837466  0.3774948758375913  0.6045444552097041   T   T   T
 -0.0013182340646951  0.0014782534408340  0.0192849298934155   T   T   T
  0.5166084326479617  0.0097303212066366  0.5184038344271273   T   T   T
  0.4951906732788003  0.9040438435357327  0.2199570610765557   T   T   T
  0.4691082592981073  0.1029418055511461  0.7822003007825866   T   T   T
  0.5161310360789910  0.4950897424434383 -0.0046222793947924   T   T   T
 -0.0063511150296901  0.5039193525060085  0.4902751034845073   T   T   T
 -0.0342422118219895  0.4093158666595108  0.2164998862490046   T   T   T
  1.0284676769610708  0.5868171317359002  0.7612211876699161   T   T   T
  0.3539488888768990  0.8572327335960147  0.3831931149328756   T   T   T
  0.7026538601322331  0.1560571594055709  0.6580379711034998   T   T   T
  0.2287534242631390  0.1175188297626839  0.6221230818628282   T   T   T
  0.5544828522781974  0.9089842759642711  0.6589383940078909   T   T   T
  0.5696994223696532  0.0869231917189673  0.3651883727611340   T   T   T
  0.6822497760838039  0.9573545687099191  0.0739507400875227   T   T   T
  0.2216144447757228  0.0198322763185358  0.8735990000265222   T   T   T
  0.5001475146064558  0.6963771800429729  0.1142787160243465   T   T   T
  0.4630909575209885  0.2896253782992901  0.9288860781696944   T   T   T
  0.1851307958771636  0.9804418131198817  0.1770758944184857   T   T   T
  0.7395194949446262  0.3851793123686997  0.3784510266839968   T   T   T
  0.2485863694156988  0.6232876141505136  0.6029693626510088   T   T   T
  0.2131547493260605  0.3790241867398857  0.3482809381087881   T   T   T
  0.7750553424210921  0.6209856948856316  0.6367550541303504   T   T   T
  0.0051402740855016  0.3966755164042209  0.6292296661651454   T   T   T
  0.9809046557735583  0.6104624152215596  0.3502243436962886   T   T   T
 -0.0423729361405807  0.2177986259981582  0.0940525790101831   T   T   T
  1.0010275427000559  0.7680195050989235  0.8925573182366066   T   T   T
  0.2940592559163740  0.5222023243094031  0.8617892578508272   T   T   T
  0.8191541631691227  0.4759976041592109  0.0703512301809297   T   T   T
