Sr Co O 
 1.0000000000000000
     4.8051114020193904   -2.6855753596569891   -0.6813647539200389
     4.8872363385598181    8.1642409418350894   -0.5556869796876899
    -1.3673486957669954    0.0886006951224039    9.3199112561733273
 Sr  Co  O  
   8   8  20
Selective dynamics
Direct
  0.4352900129297810  0.1326328890188431  0.8730610844423644   T   T   T
  0.0950431695564503  0.3597864448908818  0.1426329847009657   T   T   T
  0.1932728201370481  0.0720247284987296  0.3732030273344108   T   T   T
  0.2723849530926978  0.4406534144265336  0.6121788036080855   T   T   T
  0.9426766496112771  0.6376616244673960  0.8676916517875892   T   T   T
  0.5811641875597258  0.8650079057715264  0.1497139685737659   T   T   T
  0.6928972775176681  0.5639674196831506  0.3687071913062215   T   T   T
  0.7747676945678157  0.9384081516726451  0.6074993990793539   T   T   T
  0.0062632523265425  0.0081535157704682 -0.0049884405913933   T   T   T
  0.7143409339252456  0.2679877399941336  0.4990516105915004   T   T   T
  0.6343170269380271  0.2054805994978321  0.2300107065196266   T   T   T
  0.8694467307534419  0.2912686791468879  0.7585006672635370   T   T   T
  0.5171245219801074  0.5068586461794330  0.0058953812198685   T   T   T
  0.2250744572788559  0.7652177527897001  0.5066140599261680   T   T   T
  0.1292977216285034  0.7008488725389465  0.2415667829495232   T   T   T
  0.3717767330869274  0.7955204290213209  0.7833520654300040   T   T   T
  0.9200032724921453  0.3029001597993143  0.3721280238860306   T   T   T
  0.5554507802171070  0.2199605326954880  0.6438779257928863   T   T   T
  0.4548788041630924  0.3259022328586956  0.3477761125196646   T   T   T
  0.7997968851835269  0.4344747656280080  0.6304235936649131   T   T   T
  0.6782197584801790  0.0890056900269621  0.3918375102094827   T   T   T
  0.3276763989471517  0.1084801430940349  0.1230901517739694   T   T   T
  0.1462801066950051  0.3789555837452837  0.8697509305443334   T   T   T
  0.6163231302732211  0.3358927324782229  0.0773102555073770   T   T   T
  0.9428192337779246  0.1223418221406899  0.8307680235259044   T   T   T
  0.8383540359250122  0.0760952496238643  0.1330360442765029   T   T   T
  0.4181310079432136  0.8075970366436327  0.3734151969743493   T   T   T
  0.0700826815392362  0.7142026813757878  0.6484855687254082   T   T   T
  0.9469231834725504  0.8229698894576499  0.3493958788125947   T   T   T
  0.3083963017833735  0.9330464368715997  0.6348773657983549   T   T   T
  0.1987093761411323  0.5808826928314599  0.4100482073467638   T   T   T
  0.8367159544123375  0.6111913206162408  0.1182292248407069   T   T   T
  0.6780210659821405  0.8744689607406541  0.8726246361989934   T   T   T
  0.4702094532116600  0.6048095356563407  0.8414235234226922   T   T   T
  0.1966921467089024  0.8612744053433187  0.9383149381868735   T   T   T
  0.3261774541215421  0.6030692094765890  0.1318959253958416   T   T   T
