Sr Co O 
 1.0000000000000000
     4.8929545279922015   -2.7936728838917997   -0.2709070522888422
    -4.8866006669754620   -2.7851056425639587    0.2500985306052350
     0.9864290785194654   -0.0699804267607734  -18.5498498948700608
 Sr  Co  O  
   8   8  20
Selective dynamics
Direct
  0.3807297194680493  0.6029239076657161  0.5476564046008831   T   T   T
  0.5152668354332811  0.4063498946786860  0.9477835986837760   T   T   T
  0.1726960330700587  0.6158816399808195  0.7918147237717535   T   T   T
  0.9520569130752683 -0.0309427612844269  0.6659776496311464   T   T   T
  0.1590509258552287  0.8227777808110228  0.0932898680151384   T   T   T
  0.7636242885766090  0.2458500292176021  0.4238992233746496   T   T   T
  0.1169265256226036  0.8892623730952994  0.3192712922745262   T   T   T
  0.7998084560800336  0.1937705938497698  0.2103799815949625   T   T   T
 -0.1604275385773629  0.1449592894107639  0.0176066160014896   T   T   T
  0.5260155256360757  0.3764466219892501  0.7500572852185747   T   T   T
  0.8838132097222067  0.9994012527467402  0.8528954405092855   T   T   T
  0.6984323870255678  0.2956109946449725  0.6031542795181123   T   T   T
  0.0687697822891856 -0.0710482131239941  0.4947603624296026   T   T   T
  0.4572888380344354  0.5330543514292299  0.2468411896214104   T   T   T
  0.4360632716795187  0.5674980631461191  0.3796524782611947   T   T   T
  0.4814119934658523  0.4936056776318203  0.1127978036085769   T   T   T
  0.4449637087677379  0.5678133113130479  0.6868848758445085   T   T   T
  0.8153676050402466  0.3353044826508162  0.7011938303461946   T   T   T
  0.1878646365484802  0.0555520932830580  0.7873002571421862   T   T   T
  0.6056875660343168  0.6401749120823369  0.8361009495222057   T   T   T
  0.9058023558299476  0.1456889512149460  0.5546080068654230   T   T   T
  0.8413777285704063  0.6212274141880391  0.5582100795289437   T   T   T
  0.3496325339610676  0.0521497851524983  0.5763275603175241   T   T   T
  0.9114436162891965  1.2827583447350568  0.9154242362768142   T   T   T
  0.6311202946866000  0.4349235338578748  0.3113239772454098   T   T   T
  0.2769274738042215  0.6146401506082306  0.1808953575324881   T   T   T
  0.1443420091714937  0.3621802278425710  0.3133549144776960   T   T   T
  0.7620877938694119  0.7146768110262186  0.1806152174403541   T   T   T
  0.3657373588034973  0.2199043253933824  0.1844455015683796   T   T   T
  0.5598110791715361  0.8493914065545053  0.3099833062473755   T   T   T
  0.2208626751566800  0.7032081526144071  0.4356624977477057   T   T   T
  0.7215009163102504  0.3848407545039093  0.0571425992899556   T   T   T
  0.3118295824906515  0.2497288985611485  0.4382109988993416   T   T   T
  0.5823942856399834  0.7827700170080252  0.0379154383156635   T   T   T
  0.1780854214470150  0.2360005017475017  0.0497389240419276   T   T   T
  0.7586340565301638  0.7926647741378929  0.4301733493357888   T   T   T
