Sr Co O 
 1.0000000000000000
     0.0345510504339018    5.5573855828391707    0.0767362447906506
     9.4788567312535950    0.0567791364232283   -1.3898713191433709
    -3.2598328404372672   -2.9492215044432557   -8.7740161302888620
 Sr  Co  O  
   8   8  20
Selective dynamics
Direct
  0.5866834359218106  0.8451364260921326  0.1537419792635632   T   T   T
  0.9312359559818022  0.6550267031440191  0.8592922020173642   T   T   T
  0.7946714141358145  0.9128608309378665  0.5962701755937184   T   T   T
  0.6900187071957391  0.5629967917635514  0.3732399464062542   T   T   T
  0.0904601705312133  0.3710211073657296  0.1667356303416384   T   T   T
  0.3999335762115771  0.1443307827225938  0.8700840625599747   T   T   T
  0.3049558828441085  0.4574679282457455  0.5992440952967586   T   T   T
  0.2141318655905443  0.0500565651142451  0.3883950325883515   T   T   T
 -0.0156180644369108  0.0065238431931474  0.0038741820969754   T   T   T
  0.7730231400998270  0.2442865163810826  0.5041631132272429   T   T   T
  0.8145012086065335  0.2887670069496194  0.7900140887369789   T   T   T
  0.6445939421986553  0.2071754457343463  0.2326874566058231   T   T   T
  0.5220795416463999  0.5112818435317701  0.0059591254674947   T   T   T
  0.2445404917227920  0.7527708869274227  0.5018160703604455   T   T   T
  0.3392303556408685  0.8006722444647013  0.7660991226484788   T   T   T
  0.1377813751286826  0.7082322569780896  0.2309425912231806   T   T   T
  0.9076061440629332  0.3983237047103619  0.6724453814096450   T   T   T
  0.6899863038699703  0.0721299116535315  0.3553049502174512   T   T   T
  0.4737841989301440  0.3140928017771961  0.3612953190073156   T   T   T
  0.9770254601758375  0.2967522948859623  0.3982957789464740   T   T   T
  0.6129084800910177  0.1617964109101490  0.6124340431766730   T   T   T
  0.9910026341608990  0.1845640151743000  0.9288899598487118   T   T   T
  0.5769124495184570  0.3397417651820927  0.1160767176134370   T   T   T
  0.7219890832104257  0.0665498106430303  0.0804952823998233   T   T   T
  0.5373051456949198  0.3849171038987438  0.8382063051685343   T   T   T
  0.2925834528270055  0.9349363591276779  0.6402518657275863   T   T   T
  0.1949927684962499  0.5792430090742516  0.3658549241261273   T   T   T
  0.5430855549859229  0.7070976492071486  0.6491932431249934   T   T   T
  0.9589918248727509  0.8035252697391017  0.3594852795574544   T   T   T
  0.4277000059111944  0.8079273399757727  0.3832829322710157   T   T   T
  0.0460434522350823  0.6831170151876890  0.6020106586839203   T   T   T
  0.4259515073393741  0.6812152648043238  0.8925427794642907   T   T   T
  0.0991779479383770  0.8748895481282621  0.1248349450412125   T   T   T
  0.8592669083742656  0.5947874169487688  0.0885378132221956   T   T   T
  0.3518797952105386  0.5967262239335540  0.1300022994546272   T   T   T
  0.1109338543394103  0.9114097299455265  0.8587008739630985   T   T   T
