Sr Co O 
 1.0000000000000000
     0.0184127859422443    5.4215777835748327    0.0139713549946123
    -9.6101082323994405   -0.0369697767286039    1.4518811654168808
    -1.5000922280747615    0.0347928756927317    9.3611366371462807
 Sr  Co  O  
   8   8  20
Selective dynamics
Direct
 -0.0178018894679367  0.7173221611417285  0.8565361935925312   T   T   T
  0.0077243350368327  0.2758064701128414  0.1291899994035283   T   T   T
  0.0233702575188700  0.8611494221968986  0.3699068184815380   T   T   T
 -0.0032121810374900  0.1435584540608176  0.6360631660055505   T   T   T
  0.4981230541640943  0.2232454517358055  0.8644662456180680   T   T   T
  0.4964640805682620  0.7969335073375103  0.1206148930640934   T   T   T
  0.4945496815771893  0.3580501256338120  0.3919239771055151   T   T   T
  0.5154270945840023  0.6185041664467309  0.6298515242957631   T   T   T
 -0.0026749010281141  0.0047760798836193 -0.0041456089669974   T   T   T
  0.0363528901609999  0.4954099467839698  0.4920815950219048   T   T   T
 -0.0196929016070303  0.5805384968445784  0.2304077021568034   T   T   T
  0.0046036732185515  0.4225133109466963  0.7638598381538958   T   T   T
  0.5083835341714399  0.4957140199489685  0.0013138462606717   T   T   T
  0.5076293452429004 -0.0089812302592653  0.5018631722325606   T   T   T
  0.4973794723931984  0.0782713509788326  0.2315293857634178   T   T   T
  0.5024743081567206  0.9201933475054527  0.7707768737049652   T   T   T
 -0.0043808458163899  0.3878791318330492  0.3536796958787066   T   T   T
  0.0295116956611865  0.6221164834064365  0.6140988447461043   T   T   T
  0.2482677348045814  0.6094246948209190  0.3466086297120902   T   T   T
  0.7838249121196064  0.3940713442959727  0.6113763474881998   T   T   T
  0.2602434401364548  0.3823332250960033  0.6388469419120122   T   T   T
 -0.0076026688229068  0.7665993456338777  0.1221511774461883   T   T   T
 -0.0096779938709652  0.2265944265931639  0.8761965092164733   T   T   T
  0.7314235980697592  0.4726130888180041  0.8578391637834757   T   T   T
  0.2122180709148722  0.4689667962541545  0.9158722976842028   T   T   T
  0.6856084592730521  0.5459248922860420  0.1498927964446571   T   T   T
  0.5146740116972944  0.8718744537972434  0.3834350411037074   T   T   T
  0.5043926928522179  0.1127011802077867  0.6169335528460378   T   T   T
  0.7461178911295910  0.8877233185811578  0.6267863594648149   T   T   T
  0.2595123861212829  0.0948817599865343  0.3827906710449887   T   T   T
  0.5107247163404932  0.2818416444194104  0.1469786475361289   T   T   T
  0.4761682873456364  0.7226609705402998  0.8703084830195015   T   T   T
  0.7965402242941361  0.0390142803088578  0.1616728581546729   T   T   T
  0.1977243825538318  0.9577351486002618  0.8394965390193296   T   T   T
  0.7180276361549688  0.9814912321043932  0.8973819956536712   T   T   T
  0.2705816264468925  0.0285477300899380  0.1007136497885171   T   T   T
