Sr Co O 
 1.0000000000000000
     0.0200338909323858    5.5004270002127900    0.0648427475031061
    -9.7262783812716869   -0.0243480591815523    1.4590388051407266
    -1.4995695836582505    0.1010731508453897    9.4505024608279644
 Sr  Co  O  
   8   8  20
Selective dynamics
Direct
  0.0030159546230765  0.7351750204718136  0.8724499257435758   T   T   T
  0.0177784748303192  0.2690285831433713  0.1568976668580234   T   T   T
 -0.0015575499259883  0.8970862798915449  0.3537402154625849   T   T   T
  0.0072349189215605  0.0915030989909302  0.6213804024908607   T   T   T
  0.5156836794972168  0.2064082586600881  0.8573442670255722   T   T   T
  0.4937930425397117  0.8256291752152933  0.1016788998207151   T   T   T
  0.5073439946511055  0.3354269829091112  0.3790363069447665   T   T   T
  0.5310579399692801  0.6578101098457083  0.6236926830415450   T   T   T
  0.0064468552124700  0.0270266954313547 -0.0235895213167804   T   T   T
  0.0553377359994018  0.4789601778254107  0.5209843164975795   T   T   T
 -0.0885546911887365  0.5936151581791130  0.2549715482231940   T   T   T
  0.0380812445482539  0.4108264482831476  0.8086334080788963   T   T   T
  0.5210006973386391  0.5035061238978670 -0.0043685649494941   T   T   T
  0.5027704316592955 -0.0025191641340475  0.4906421038661167   T   T   T
  0.5123564065786654  0.0952082515790788  0.2216648187914163   T   T   T
  0.5034019128452010  0.9143565066551266  0.7576879817627383   T   T   T
  0.0337761790562739  0.4044773189665710  0.3563801782789292   T   T   T
  0.2937327108510609  0.4312464089438586  0.6558068247462702   T   T   T
  0.8526229491200581  0.6315288586780820  0.4451389750687605   T   T   T
  0.0399034565038607  0.7575905523189260  0.1418097245092822   T   T   T
 -0.0208339447938302  0.2243169402713961  0.8205089784994676   T   T   T
  0.7365131201358381  0.4805360519623093  0.8324590940471465   T   T   T
  0.1836933939434088  0.4826774891659250  0.9447758543786348   T   T   T
  0.6283211575151222  0.5599107684570039  0.1678271563433431   T   T   T
  0.4950572366102139  0.8953255821489962  0.3490790936807130   T   T   T
  0.5054384018627947  0.1106171767099450  0.6234096101035645   T   T   T
  0.7392290579586398  0.1160469525826510  0.3668057952053092   T   T   T
  0.2722759772428336  0.8752926523843300  0.6215664703273498   T   T   T
  0.7389396130594991  0.8835380454046579  0.6163221426339925   T   T   T
  0.2736347163189649  0.1173202895766434  0.3667742926511958   T   T   T
  0.5370235894445623  0.3005510028765848  0.1242793696372286   T   T   T
  0.5005925062852138  0.7169083290369721  0.8777297728311787   T   T   T
  0.7784867206433987  0.0498554425939278  0.1126575166023170   T   T   T
  0.2417390701514415  0.9598534179417498  0.8696677020687531   T   T   T
  0.7512570507458187  0.9568619404717292  0.8753035388101970   T   T   T
  0.2664058384982048  0.0724970619977343  0.0915514977498285   T   T   T
