Sr Co O 
 1.0000000000000000
     4.9032067320773489   -2.6789035278944264   -0.6401285166385190
    -4.9197449318975357   -2.7041141295326350    0.5426727449589065
     2.4343865119699286   -0.3058596629700255  -18.7948964120158735
 Sr  Co  O  
   8   8  20
Selective dynamics
Direct
  0.3341003121393624  0.7630812808744758  0.5689263264905424   T   T   T
  0.6762572650946816  0.2536576676610887  0.9334566443474017   T   T   T
  0.1201773959702958  0.8672711007978037  0.8170451350139701   T   T   T
  0.8453854173680916  0.1368188474840287  0.6956822054443099   T   T   T
  0.2333532024691078  0.6936742240301038  0.0731072791020993   T   T   T
  0.7690951489318818  0.3026153847285693  0.4296485021517841   T   T   T
  0.1504820196049294  0.8441073362027438  0.2967388057975289   T   T   T
  0.8386030704070406  0.0932814624237518  0.1830914353842635   T   T   T
 -0.0526605288115244 -0.0062414995798057  0.0106051787700023   T   T   T
  0.4623588847858058  0.4901123260034064  0.7498133260662125   T   T   T
  0.3522282233314865  0.5382258127738995  0.8797329806234861   T   T   T
  0.6386877344307279  0.4730663437689134  0.6161651999572191   T   T   T
  0.0778418741125556  0.0159665999699181  0.4910344930988242   T   T   T
  0.5118802609263878  0.4946715178106121  0.2500155094634041   T   T   T
  0.4890458436335159  0.6286823618746528  0.3942494648622537   T   T   T
  0.5392842582613079  0.3814939552487016  0.1165313425509550   T   T   T
  0.5711338838886687  0.3833216652772802  0.8216903283620188   T   T   T
  0.4120568617475024  0.6178553325056430  0.6720905584148075   T   T   T
  0.0889210439480751  0.3676609719092344  0.8029759956314396   T   T   T
  0.4193504915030939  0.1814396578586811  0.6820915035273920   T   T   T
  0.5951838658884028  0.8326462629624587  0.8099576823694449   T   T   T
  0.2160498907225469  0.7436439980439356  0.9379592634571446   T   T   T
  0.8029755872193602  0.2874356317580860  0.5629855215159775   T   T   T
  0.1117870316388305  0.1908212618255763  0.9293852974393869   T   T   T
  0.9039725735269305  0.8280605618362494  0.5785040291601028   T   T   T
  0.6009559882711806  0.3937147803903712  0.3262291514774189   T   T   T
  0.3494170425730171  0.5656071979124336  0.1839653375480635   T   T   T
  0.8418956072450762  0.6202800569454147  0.1751765479884242   T   T   T
  0.3842906069246139  0.1419433201895981  0.1961165819379571   T   T   T
  0.5801400225421994  0.8223580556446456  0.3088594252301307   T   T   T
  0.2705815590433374  0.7913718273603259  0.4431645975891484   T   T   T
  0.7331349749403294  0.1838616926989137  0.0601470659704712   T   T   T
  0.3747984830548020  0.3952762514942490  0.4746267412072771   T   T   T
  0.6779143904489567  0.6348444940100239  0.0373778052322886   T   T   T
  0.2085361559112828  0.1297324784353761  0.0737755295818985   T   T   T
  0.8707836590656214  0.9176403067247551  0.4170773053507638   T   T   T
