Sr Co O 
 1.0000000000000000
     4.8441914730433444   -2.8833377987033844   -0.6204672255856613
     4.6355994565293734    8.3209270822112238   -0.7152852039185494
    -1.3768744159960442   -0.0845954996727108    9.5236979126040140
 Sr  Co  O  
   8   8  20
Selective dynamics
Direct
  0.4158373079419680  0.1101026766883728  0.8448639654193633   T   T   T
  0.0921717306276738  0.3871065493839364  0.1595364253391612   T   T   T
  0.1601511483491128  0.0837340940328252  0.3787255342975425   T   T   T
  0.2957279601422838  0.4501494382968670  0.6009453205069146   T   T   T
  1.0101944027112748  0.6612596522024411  0.9067550508228912   T   T   T
  0.5837492195703624  0.8481254959230693  0.1378438048713365   T   T   T
  0.6678396360510250  0.5639133052027999  0.3612533991369331   T   T   T
  0.8154564073197054  0.9020847324152388  0.6331867316927510   T   T   T
  0.0242133905976919 -0.0128740238976746 -0.0044081970693717   T   T   T
  0.7073069251176207  0.2521088728428690  0.4777836912318246   T   T   T
  0.5450655788163743  0.2079898202331440  0.2117230904399706   T   T   T
  0.8742048090047526  0.2632076234460748  0.7651449171309573   T   T   T
  0.5888586468878348  0.4855509731541526 -0.0127395859225169   T   T   T
  0.2318330280331020  0.7492773586666405  0.5144712731539606   T   T   T
  0.0954511693476706  0.7237483252431101  0.2504938836300485   T   T   T
  0.4177773310026876  0.7738178758602311  0.7737578524682079   T   T   T
  0.8516328031042911  0.2948184057842901  0.3230152544763134   T   T   T
  0.5618955740522841  0.2361073623605663  0.6356478926676472   T   T   T
  0.4310926327994973  0.3352481104100670  0.3806606169893039   T   T   T
  0.0128104601378844  0.2366382868592599  0.5997464915880995   T   T   T
  0.6026022848320968  0.0664631949203818  0.3334953071492022   T   T   T
  0.2258072403649324  0.1349569227297525  0.1226917341525571   T   T   T
  0.5139196018377948  0.3286004434491906  0.0632562239576594   T   T   T
  0.9661824912495264  0.1002923184349586  0.8406156904485873   T   T   T
  0.8691930881006820  0.4126438528587507  0.9038246041250632   T   T   T
  0.0993165191857119  0.6904829868666641  0.6661026272908263   T   T   T
  0.9584844887457382  0.8241366396712572  0.4009102387811258   T   T   T
  0.5345875921559129  0.6811079435789049  0.6030377855637319   T   T   T
  0.3470695429187143  0.9185614727778106  0.6409557331333938   T   T   T
  0.1493100873743493  0.5851787888390357  0.3814423624465775   T   T   T
  0.7989895580743956  0.6101660595537449  0.1374237724146718   T   T   T
  0.7387807910566360  0.8671869898873560  0.8845567180629833   T   T   T
  0.0456225449692154  0.8871452073097861  0.1561567588359560   T   T   T
  0.4438610997033401  0.5954456233618390  0.8597421213325614   T   T   T
  0.2836396530316235  0.8809310226199698  0.9191181016691400   T   T   T
  0.3148630090527492  0.6410856352943173  0.1589625365800341   T   T   T
