Sr Co O 
 1.0000000000000000
     4.7421355812193831   -2.8141961617508788   -0.7282550684462792
     4.7414041485556133    8.3504869687152592   -0.7309336352329675
    -1.5435598086994244   -0.0252412070545032    9.6218097318501936
 Sr  Co  O  
   8   8  20
Selective dynamics
Direct
  0.3920553538379402  0.1127625705325061  0.8417891142706243   T   T   T
  0.0655345137452669  0.3787208387364737  0.1368706880310063   T   T   T
  0.1868440854747482  0.0301438150118097  0.3952526170437721   T   T   T
  0.3233084804769228  0.4427359214459352  0.6057656234929515   T   T   T
  0.9759802725229288  0.6394618841456339  0.8686363126419190   T   T   T
  0.5856910845828571  0.8252700932555936  0.1514275084826367   T   T   T
  0.6907901273411290  0.5702818241235622  0.3854674104557858   T   T   T
  0.8126937841233631  0.8959278747996834  0.6101252825641564   T   T   T
  0.0316708798688550 -0.0445382544456727 -0.0022082569141232   T   T   T
  0.7305312794516604  0.2234355385317758  0.4568610282928524   T   T   T
  0.5123702509331606  0.1944764385777373  0.1822843794114041   T   T   T
  0.8820180405095853  0.2932996816043115  0.7275544601778474   T   T   T
  0.5031775516313078  0.4954656039335313  0.0058776656678283   T   T   T
  0.2657701410707951  0.7370763624340438  0.5088675125332089   T   T   T
  0.1188294956785870  0.6991887600857410  0.2456799959676717   T   T   T
  0.4286377795906024  0.7743832677993654  0.7717221248227404   T   T   T
  0.5632923912882843  0.2388156476879282  0.6964286724676593   T   T   T
 -0.0189826009223327  0.1426095158103158  0.5902229175217748   T   T   T
  0.8391444636023458  0.4002352017263606  0.5613340465870308   T   T   T
  0.4191068276628075  0.2781733260809747  0.3601627887054756   T   T   T
  0.1820972884570705  0.1322183889960866  0.0560522273340212   T   T   T
  0.6039342487243928  0.3176128575294030  0.0670043814336967   T   T   T
  1.1296325937915457  0.3829666170208756  0.8712002110423903   T   T   T
  0.7161836649509429  0.0773010522551107  0.3051384125936639   T   T   T
  0.4224034771063811  0.7978214524923795  0.3743463203459052   T   T   T
  0.1207103677318350  0.6830217590893479  0.6505438216808178   T   T   T
  0.9645719637531662  0.7924152546949429  0.3911968472994713   T   T   T
  0.5667358086618154  0.6789544420557745  0.6232833679755305   T   T   T
  0.3393034731461371  0.9102976429144990  0.6382137405144060   T   T   T
  0.1935793273184099  0.5626071175919838  0.3765708894871162   T   T   T
  0.8117471967044492  0.5944018120042249  0.1419877624111337   T   T   T
  0.7378137963589353  0.8971925160143965  0.8647890850887463   T   T   T
  0.0496486208428814  0.8623190087001689  0.1514754979038206   T   T   T
  0.5085560017168936  0.6033382028818235  0.8641527177521888   T   T   T
  0.2768546962998516  0.8682088904100199  0.9136293279495288   T   T   T
  0.2942626055478554  0.6008969798284404  0.1155933838369993   T   T   T
