Sr Co O 
 1.0000000000000000
    -4.7329355049518833    2.7587722726675650    0.7480107284084401
    -4.7752267601300842   -8.3322670283306817    0.8447697044298798
     3.0878812422247779    2.6985877186133322    8.6286728736802800
 Sr  Co  O  
   8   8  20
Selective dynamics
Direct
  0.0072514780877541  0.2808286905534785  0.8419220896533290   T   T   T
  1.0071690853364652  0.7178513896160151  0.1593578200465494   T   T   T
 -0.0206283836105073  0.1307890375655164  0.4075616494604372   T   T   T
  1.0029456004985378  0.8644080602840432  0.5965723847671087   T   T   T
  0.4905483258691308  0.7636025808043556  0.8394618830873033   T   T   T
  0.4858626357884364  0.2326386443196027  0.1583243402493427   T   T   T
  0.4962104014774830  0.6421090361559904  0.3973857833449345   T   T   T
  0.4793203773809126  0.3609644307006410  0.5900013922071206   T   T   T
 -0.0046170968076817 -0.0288348779074015 -0.0142819859252524   T   T   T
  0.4948543763826878  0.0000602666503337  0.5014021883224895   T   T   T
  0.5279727210178840  0.9153725915502230  0.2282017822737821   T   T   T
  0.4771580440349718  0.0909135160599591  0.7736133513827365   T   T   T
  0.4945175980927560  0.4957747406476337  0.0074241166098509   T   T   T
 -0.0173311816002503  0.5013198505325814  0.4986290194381724   T   T   T
 -0.0085778118400493  0.4286443581461270  0.2324507807131689   T   T   T
  1.0253925653070362  0.5802654903046331  0.7646878800099981   T   T   T
  0.2780567283516698  0.8793821876484381  0.3541194220372144   T   T   T
  0.7229895236962146  0.1146261874900629  0.6428267086338634   T   T   T
  0.7467019760171535  0.8845989660980486  0.3863319619546010   T   T   T
  0.2492073995341148  0.1213599267512395  0.6174782047040129   T   T   T
  0.4791328336461749  0.8941038817894514  0.6429120030753768   T   T   T
  0.4993590952416645  0.1091607961691255  0.3659325015104168   T   T   T
  0.7546174806142560  1.0007484064461489  0.1208476238848010   T   T   T
  0.2233893492302752  0.0600179315352763  0.9087326717384602   T   T   T
  0.5201377589123921  0.7288957558427955  0.0932978800706277   T   T   T
  0.5447730703172178  0.2683406959452656  0.9035648241707545   T   T   T
  0.7357555881670428  0.3965356651075377  0.3602333540152369   T   T   T
  0.2486111425314013  0.6050997618291415  0.6100831463249444   T   T   T
  0.1822099438602486  0.3584051422922646  0.3612544615772127   T   T   T
  0.7785720229577431  0.6286967112799028  0.6454039197971593   T   T   T
 -0.0363037740037792  0.3875752616776453  0.6309057929123568   T   T   T
  0.9901553223700970  0.6281213187389764  0.3864009566999073   T   T   T
  0.2755735882645228  0.4685358123508101  0.1486350267418294   T   T   T
  1.0230567459436357  0.7659234452538629  0.9084499021152113   T   T   T
  0.2953012707078745  0.5072067802275608  0.8512164169208752   T   T   T
  0.8016539958053966  0.4709572483637652  0.0866582945235002   T   T   T
