Sr Co O 
 1.0000000000000000
    -4.8258077796738963    2.8185010214361248    0.6699167532262701
    -4.6846120057348548   -8.2202055549097484    0.6439595918105097
     3.3714025219181623    2.7106859612785699    8.7164899153935789
 Sr  Co  O  
   8   8  20
Selective dynamics
Direct
 -0.0078404790076718  0.3063579601265832  0.8351174356621562   T   T   T
  1.0115113311087165  0.6986593968607882  0.1011489564115477   T   T   T
 -0.0178118917556724  0.1173163710241114  0.4104145851131545   T   T   T
  0.9870732882122457  0.8873142676521474  0.6285119900934651   T   T   T
  0.4874172785347932  0.7609617243937743  0.8328471578060561   T   T   T
  0.4850627898370208  0.2083778694147789  0.1628805483208681   T   T   T
  0.4611109066133731  0.6433250290496896  0.3990125936136341   T   T   T
  0.4753612132556506  0.3749642184320511  0.6043338805062366   T   T   T
  0.0651556488969368 -0.0112756751790653  0.0009599354937358   T   T   T
  0.4762994319823881  0.0067429096840393  0.5158497799149481   T   T   T
  0.5006979528116448  0.8898902366298723  0.2474946458245928   T   T   T
  0.4765997910908472  0.1144048749205009  0.7892683808984616   T   T   T
  0.4845422852053995  0.4994443849187620 -0.0151460252963197   T   T   T
 -0.0304731984301582  0.4989232230150041  0.4798659612792702   T   T   T
  0.0010180832454309  0.3563533758717160  0.1979792103483606   T   T   T
  0.9683603207519250  0.5923132515820375  0.7478126414066680   T   T   T
  0.2350846644953210  0.8737360084308405  0.3816053948020147   T   T   T
  0.7109776902004951  0.1281827682796626  0.6562436262916562   T   T   T
  0.7102575234593007  0.8780926195005145  0.4026963329161994   T   T   T
  0.2530490291073002  0.1447775770553627  0.6270599022230463   T   T   T
  0.4624181040730855  0.9105058446716804  0.6587650485217219   T   T   T
  0.5049017682651374  0.1036805718087565  0.3721194226076000   T   T   T
  0.2160679584803468  0.0903297262093698  0.8950398671555120   T   T   T
  0.5561413300804006  0.6814738506306814  0.1457602701608446   T   T   T
  0.5780350088888057  0.2956423226495208  0.9409876394549218   T   T   T
  0.3377879140268439  0.9200950611313297  0.0883959565744884   T   T   T
  0.7449590107507014  0.4293895094919567  0.3196083074458178   T   T   T
  0.1908362523667134  0.6318959368034568  0.6173195850374991   T   T   T
  0.2182492671578583  0.3872600116899683  0.3697738040095802   T   T   T
  0.7399369443442109  0.6219327138385589  0.6037732050907155   T   T   T
 -0.0418138266846551  0.3867384919926873  0.6101629987106401   T   T   T
  0.7347907150049476  0.5404277442887135  0.8619157449713645   T   T   T
 -0.0725654886673619  0.1439867517151664  0.1493737822278579   T   T   T
  0.9387917706555108  0.8085927430408518  0.8754400843932675   T   T   T
  0.2321204304413129  0.5508216341620429  0.8650359350743017   T   T   T
  1.1640389520585892  0.4535145045042465  0.1038712560181235   T   T   T
