Sr Co O 
 1.0000000000000000
     4.8745757560430585   -2.6725573723670903   -0.6476119689886670
     4.9360280020161174    8.0953990940247973   -0.4926260613522095
    -1.2336037742334784    0.1260174463808406    9.3569404560327776
 Sr  Co  O  
   8   8  20
Selective dynamics
Direct
  0.4068015538081403  0.1125636353286996  0.8655349565068392   T   T   T
  0.0920643554965073  0.3427235991121864  0.1545125920652059   T   T   T
  0.2222695954887641  0.0606889429821573  0.3986827564169134   T   T   T
  0.2769195451401927  0.4066175824109262  0.6002756237362943   T   T   T
  0.9325180448762841  0.6317328413958971  0.8637670114585627   T   T   T
  0.5844515448362336  0.8594955527805693  0.1533747512376083   T   T   T
  0.6959556056732241  0.5246661367449397  0.3690880923501598   T   T   T
  0.8121429061553044  0.9300704944147884  0.6264176858373883   T   T   T
  0.0230513432990054 -0.0131599201460199  0.0322276884230967   T   T   T
  0.7518198754579052  0.2292370027508378  0.5002382971444557   T   T   T
  0.6225384565746658  0.1941016920324450  0.2280704438674621   T   T   T
  0.8691690077065174  0.2860187907595508  0.7573173536098723   T   T   T
  0.5209480063012039  0.5131248524348642  0.0130104208578712   T   T   T
  0.2615684552033384  0.7282121901230517  0.5001522318260453   T   T   T
  0.1389456147219774  0.6884071341497938  0.2284771515850100   T   T   T
  0.3675986481684514  0.7728861645270428  0.7786241644321386   T   T   T
  0.9112660490161724  0.2786112418857772  0.3582695164089803   T   T   T
  0.5944623382261651  0.1834723366788638  0.6631134047906017   T   T   T
  0.4576417533231209  0.2867002924052942  0.3740350659609805   T   T   T
  0.0502948607526519  0.1663085267746532  0.6302278489997217   T   T   T
  0.7871783930702713  0.4179711614969062  0.6082063269221859   T   T   T
  0.7034429297953438  0.0525650193695973  0.3779592051925975   T   T   T
  0.3236656496012712  0.0991261048651931  0.1201944085367803   T   T   T
  0.5539368194402957  0.3640332309421533  0.1191856305743377   T   T   T
  1.1010760860614115  0.3659382959694754  0.8949083671606912   T   T   T
  0.7969873436965280  0.1212723379758380  0.0734435968826429   T   T   T
  0.4474981715953352  0.7615671335712232  0.3704851390044275   T   T   T
  0.0825274299195766  0.6892889000163216  0.6333613454758893   T   T   T
  0.3456839362165628  0.8942460122425508  0.6112711878816068   T   T   T
  0.1688922529997101  0.5625466666982292  0.3805167906482972   T   T   T
  0.8345138578098759  0.6038714294886792  0.1238514095775684   T   T   T
  0.6463765364021713  0.8569525199430860  0.8810058629695059   T   T   T
  0.0414281893518988  0.8745037174540899  0.1906177306313096   T   T   T
  0.4773335029539749  0.5759318781035295  0.8278179318130136   T   T   T
  0.1318734125404934  0.9051926960457906  0.8715650792938026   T   T   T
  0.3001575095409514  0.6475133929814669  0.0761928493800986   T   T   T
