Sr Co O 
 1.0000000000000000
    -0.0000000000000000    5.5312786260485192   -0.0000000000000000
    -9.6790173606403815   -0.0000000000000000    1.5042608311372068
    -1.5765412887051300   -0.0000000000000000    9.5899971130175032
 Sr  Co  O  
   8   8  20
Selective dynamics
Direct
  0.0000000000000000  0.6883497491069663  0.8847489146397904   T   T   T
 -0.0000000000000000  0.2857022283899394  0.1381773310519350   T   T   T
  0.0000000000000000  0.9038398594540731  0.3581079635923157   T   T   T
  0.0000000000000000  0.1751412153068484  0.5839043813574220   T   T   T
  0.5000000000000003  0.2226629788804673  0.8708166069622048   T   T   T
  0.5000000000000004  0.7904201321056631  0.1586084433844395   T   T   T
  0.5000000000000003  0.3982028406204460  0.3405987333595661   T   T   T
  0.5000000000000004  0.5996701648434160  0.6126515709137907   T   T   T
 -0.0000000000000000  0.0059705663113118 -0.0035045806697047   T   T   T
  0.0000000000000000  0.5062155686474148  0.4823662420384778   T   T   T
  0.0000000000000000  0.5884834157113279  0.2264676474375629   T   T   T
  0.0000000000000000  0.3972889344946152  0.7661967937532549   T   T   T
  0.5000000000000003  0.5087592896972541 -0.0151922739062847   T   T   T
  0.5000000000000003  0.0091000118574536  0.5098368060229286   T   T   T
  0.5000000000000003  0.1011316109550391  0.2338454718915212   T   T   T
  0.5000000000000004  0.8985786808205403  0.8153038956971405   T   T   T
  0.0000000000000000  0.3809577008624392  0.3517592201799976   T   T   T
  0.2262042518309232  0.6327832922479613  0.3609924527207660   T   T   T
  0.7727817006006730  0.3956436318167039  0.6133864696253229   T   T   T
  0.2272182993993287  0.3956436318167039  0.6133864696253229   T   T   T
  0.7737957481690774  0.6327832922479613  0.3609924527207661   T   T   T
  0.0000000000000000  0.1876659542255577  0.8509319897846319   T   T   T
  0.2505335832662107  0.5759361256883001  0.1050170379228725   T   T   T
  0.7568442117784817  0.4558773181330698  0.8640101722349218   T   T   T
  0.2431557882215192  0.4558773181330698  0.8640101722349218   T   T   T
  0.7494664167337900  0.5759361256883001  0.1050170379228725   T   T   T
  0.5000000000000004  0.8535329840584370  0.4525192818230203   T   T   T
  0.5000000000000003  0.0784309125153209  0.6673168019338768   T   T   T
  0.7414137775827798  0.1206357681790722  0.3780228952474484   T   T   T
  0.2585862224172205  0.1206357681790722  0.3780228952474484   T   T   T
  0.5000000000000003  0.3050979904822058  0.1210706675066709   T   T   T
  0.5000000000000004  0.7150643968735501  0.8100391249404880   T   T   T
  0.7546983377234358  0.0302878638866861  0.1377533022427933   T   T   T
  0.2328254957612308  0.8987026829466920  0.9302322010175538   T   T   T
  0.7671745042387702  0.8987026829466920  0.9302322010175538   T   T   T
  0.2453016622765645  0.0302878638866861  0.1377533022427933   T   T   T
