Sr Co O 
 1.0000000000000000
     4.7592394698537284   -2.7982747058678163   -0.7141594259559215
     4.7159900656705869    8.3194933681464924   -0.8204169086057099
    -1.5854107664924422   -0.0974685730831378    9.3500171955277480
 Sr  Co  O  
   8   8  20
Selective dynamics
Direct
  0.3910774380344684  0.1445781895493966  0.8420862240693245   T   T   T
  0.0854198731784730  0.3734925315168322  0.1611221698104453   T   T   T
  0.2017587957381198  0.0698758389510017  0.4013208585948985   T   T   T
  0.3025368482649466  0.4524378915676422  0.6011204429490596   T   T   T
  0.9408956293157905  0.6363073525697176  0.8634126931539142   T   T   T
  0.5872307139129959  0.8308473583026736  0.1570155167142825   T   T   T
  0.6980371888936565  0.5667089566893894  0.3981524802965255   T   T   T
  0.7835104251619319  0.9248172150896276  0.5869310696885783   T   T   T
 -0.0027765004027865 -0.0137889617357372  0.0220638547172450   T   T   T
  0.7320550972244960  0.2498469585232048  0.4852644873935129   T   T   T
  0.5799246211876344  0.2054285132496515  0.2086889590623811   T   T   T
  0.8843539549534162  0.3005168026509207  0.7498301155180731   T   T   T
  0.5077857069013560  0.5001526672540488  0.0154850455097546   T   T   T
  0.2544601002532470  0.7593238207714742  0.5139217084647203   T   T   T
  0.1307580220554535  0.7030275481550197  0.2409080899741355   T   T   T
  0.4148338684234171  0.7958783468523642  0.7832574589845009   T   T   T
  0.8945744940625372  0.2812937537739536  0.3417252378986024   T   T   T
  0.5703479360354544  0.2198990125493857  0.6470910214386896   T   T   T
  0.4475296451325607  0.3236071234759372  0.3728110899853301   T   T   T
  0.0153749697002469  0.1689501855747891  0.6108404389423046   T   T   T
  0.8358346292234428  0.4326490706559419  0.6135111776427921   T   T   T
  0.6273071314284993  0.0746617842502183  0.3450454905247143   T   T   T
  0.2510567307990574  0.1227798960430488  0.0790511103129214   T   T   T
  0.1430222635378589  0.3827638598224839  0.8944524422839301   T   T   T
  0.6150981056679542  0.3174712710772140  0.0669846013924579   T   T   T
  0.4163050319272110  0.8082436583808053  0.3787897050770326   T   T   T
  0.0953590419378333  0.7199957029073230  0.6603423399815023   T   T   T
  0.9630611348673205  0.8182356986232580  0.3769912640569447   T   T   T
  0.5554777551981397  0.6933897783195329  0.6236157976135434   T   T   T
  0.3431860642390683  0.9328420605065511  0.6495259189857086   T   T   T
  0.1614143526707599  0.5835634002323856  0.3871449209116566   T   T   T
  0.8403423422033784  0.5944886765216985  0.1094686752830766   T   T   T
  0.6679586744136357  0.9291818612510897  0.9224033498061416   T   T   T
  0.1154749486163628  0.8294636681858770  0.0991698997856073   T   T   T
  0.4479642970957625  0.6303594607162978  0.8774783142477466   T   T   T
  0.3574481355635056  0.5887089657154477  0.1609759482678991   T   T   T
