Sr Co O 
 1.0000000000000000
    -4.8093413302910708    2.8347637153829077    0.6430011111223716
    -4.6551595238483747   -8.2509804367277333    0.8804289076991508
     3.2326589831433874    2.5073430616277923    8.9212809898481762
 Sr  Co  O  
   8   8  20
Selective dynamics
Direct
 -0.0177058367049018  0.3116221159510498  0.8434202482827587   T   T   T
  1.0090231259580305  0.7291943894780266  0.1369137799785377   T   T   T
  0.0087114153695725  0.1149255012075052  0.4034237042893801   T   T   T
  1.0036978499383231  0.8469391434516090  0.5971981045230380   T   T   T
  0.4664213279626164  0.7616568928891828  0.8680245048884895   T   T   T
  0.5212002175161579  0.2125491530619791  0.1304256693840658   T   T   T
  0.5222839145537510  0.6503435768333298  0.3547800267500322   T   T   T
  0.4691085192378306  0.3934873765448884  0.6025488202722619   T   T   T
 -0.0315607094340675 -0.0203206068153152 -0.0155468366953299   T   T   T
  0.5184507217874215  0.0014559493315589  0.4934361463498642   T   T   T
  0.5325395236442535  0.9268316277436832  0.2286156359622753   T   T   T
  0.5377177221822411  0.1205220179153580  0.7783460520073928   T   T   T
  0.4938651425392517  0.4974120319824543 -0.0099001564346611   T   T   T
 -0.0089828867295846  0.4969830386109123  0.4871941538906402   T   T   T
  0.0451591916215743  0.4319903176928064  0.2137624114488616   T   T   T
  0.9595137216796322  0.5901307839782096  0.7518047961201004   T   T   T
  0.2883910503156544  0.8845284625336541  0.3495301413373592   T   T   T
  0.7526239699458971  0.0841856623795482  0.6390172865843411   T   T   T
  0.7529744051696875  0.8836255384535611  0.3935683293496315   T   T   T
  0.2946675793392081  0.0770887201877744  0.6313461604437908   T   T   T
  0.5298775635187780  0.1303638453174096  0.3639126306839967   T   T   T
  0.8081208356101307  0.9908392431058922  0.1528900128174911   T   T   T
  0.2767239625817889 -0.0209765609167982  1.0511382401074414   T   T   T
  0.5509330028430236  0.7235997838822708  0.1145175236303444   T   T   T
  0.3985861799350331  0.2729462515483922  0.8961075778037412   T   T   T
  0.7712751675385537  0.1023119022328245  0.9146158082386158   T   T   T
  0.2200555407995772  0.6322839588171959  0.6424874893609789   T   T   T
  0.1607322569782136  0.3499062233606138  0.3557637972727755   T   T   T
  0.7422088957385593  0.6059309858012479  0.5872217277418272   T   T   T
 -0.0153086277381509  0.3848810864562187  0.6178248379889367   T   T   T
  0.9904835277834813  0.6133216831419664  0.3615649403608846   T   T   T
  0.3340406568934385  0.4664506661913191  0.1472136123194495   T   T   T
  0.6783215945862024  0.5181523327980709  0.8365656733084299   T   T   T
  0.9173753614002389  0.7988695101186207  0.8413395643657343   T   T   T
  0.1758372929209778  0.5680496911386776  0.9022556346611961   T   T   T
  0.8004868018343098  0.4227678545905487  0.0913718815356976   T   T   T
