Sr Co O 
 1.0000000000000000
     4.6916381928235253   -2.7987980777587032   -0.8338541130851590
     4.7315472856753420    8.4740978405468468   -0.8813194119844899
    -1.7731348672003839   -0.0173409846373243    9.5945310270635158
 Sr  Co  O  
   8   8  20
Selective dynamics
Direct
  0.4210258464369694  0.1195095955196337  0.8573855344492861   T   T   T
  0.1140957514415535  0.3490854674866704  0.1434158142477866   T   T   T
  0.1933550721961085  0.0317301182507127  0.3822895641627240   T   T   T
  0.3023038258488547  0.4734991925611067  0.6180568087673148   T   T   T
  0.9301381726443867  0.6660086088316428  0.8500137757216107   T   T   T
  0.5614201093341217  0.8485948885521523  0.1239850564083108   T   T   T
  0.6875950142665028  0.5922689113830485  0.3975624827198449   T   T   T
  0.8084231453464275  0.9247032514147234  0.6305492955135682   T   T   T
  0.0113412393451525 -0.0036929426038722  0.0115256859994930   T   T   T
  0.7070128182102683  0.2579823087631055  0.5232426500084073   T   T   T
  0.6141826102581223  0.2077057133355184  0.2103958042794703   T   T   T
  0.8251064973816689  0.3154656778371684  0.7968362913096914   T   T   T
  0.5254232593648942  0.5049285116077161  0.0059701656948379   T   T   T
  0.2463014578337070  0.7502230640387864  0.4952677540901818   T   T   T
  0.1398694555719996  0.6955377270951636  0.2309695681769945   T   T   T
  0.3787281827545474  0.7977431516049521  0.7660123889791717   T   T   T
  0.4944058162135292  0.2396687890037811  0.6506506546102063   T   T   T
  0.5280475989498103  0.3333895560330956  0.3584412554477225   T   T   T
 -0.1983522025809711  0.0932069940036003  0.4602226758815448   T   T   T
  0.8937963410785007  0.4181298255103639  0.6602781086915473   T   T   T
  0.3346412034306478  0.0728744477066505  0.1496626497945180   T   T   T
  0.5225386244404939  0.3320483059943972  0.0648098998664922   T   T   T
  0.9658025563545426  0.1723097193390223  0.8775494842800023   T   T   T
  0.8163514340990875  0.4633490711373475  0.9495512113764025   T   T   T
  0.8703185833275852  0.1164404853641453  0.1630624726655579   T   T   T
  0.4417578775780977  0.8116074512313799  0.3866411612705475   T   T   T
  0.0733176974853668  0.6984820393720657  0.6218095582259104   T   T   T
  0.9510093786384387  0.7937754487068561  0.3515482542716577   T   T   T
  0.5437836926704306  0.6967102383860756  0.6318847572077487   T   T   T
  0.3115850964989053  0.9254290984171808  0.6277583002283348   T   T   T
  0.1664510580923063  0.5660746087045333  0.3629982688148425   T   T   T
  0.6856886353773068  0.9121271302862906  0.8895573075874506   T   T   T
  0.0438739320707805  0.8123677994676433  0.1050297955667287   T   T   T
  0.4278388064076789  0.6349465048758094  0.8813774226443846   T   T   T
  0.1788609037243335  0.9000827608448441  0.8725200987217603   T   T   T
  0.3734603468797648  0.5901861849852493  0.1404678009225548   T   T   T
