Sr Co O 
 1.0000000000000000
     4.7749320286651580   -2.7558025712340926   -0.7654950712475033
     4.7891192946281489    8.2588913582821650   -0.6197854901323171
    -1.5601731389653408    0.0994601116814207    9.6128064459634963
 Sr  Co  O  
   8   8  20
Selective dynamics
Direct
  0.4297200003920586  0.1236730751240376  0.8373112307829799   T   T   T
  0.0799958178157235  0.3704193004558610  0.1327714216544055   T   T   T
  0.2263404271374543  0.0562998054153340  0.3847864800996201   T   T   T
  0.3569879830179083  0.4564677008477302  0.6571029341536474   T   T   T
  0.9357601436960414  0.6608572728028728  0.8902808667764841   T   T   T
  0.5408944646167207  0.8511405279838437  0.1141848746326107   T   T   T
  0.6581242216615328  0.5680260059665950  0.3724238617057885   T   T   T
  0.8038083945112983  0.9046457019989048  0.6412169657001010   T   T   T
 -0.0010747599632106 -0.0025597679258394  0.0103335310480796   T   T   T
  0.7520304321185155  0.2269401786342883  0.5055353408702888   T   T   T
  0.6156505993681725  0.1934950545243206  0.1948001371116778   T   T   T
  0.9326760894812008  0.3014250766217633  0.7779635888391925   T   T   T
  0.5172095077272718  0.5025396544318738  0.0143402309500489   T   T   T
  0.2537729136155605  0.7419804157308048  0.5071381744253521   T   T   T
  0.1137972574948234  0.7086692827260589  0.2351173147024705   T   T   T
  0.3755004099800071  0.7893074250436604  0.7690137942615991   T   T   T
  0.6773168885977375  0.1689095348178128  0.6739077672337950   T   T   T
  0.0828505414716240  0.2437939723699384  0.6244310976028367   T   T   T
  0.4947858033177203  0.3349454583884437  0.4361238664333316   T   T   T
  0.7609604816739642  0.0856127095172591  0.3504912988129280   T   T   T
  0.2931334445258674  0.1151842762049300  0.1379175430514834   T   T   T
  0.2358331838890920  0.3602702757849054  0.8997338160796307   T   T   T
  0.6257102953992161  0.3792474289205162  0.1680735260796326   T   T   T
  0.7465253177832867  0.4123705886774804  0.8724817806760292   T   T   T
  0.7992575337208407  0.1404668012294361  0.0590982813440105   T   T   T
  0.4149068987510796  0.8043891641482311  0.3759771024244550   T   T   T
  0.0785282356890438  0.6867536550921152  0.6343000822975011   T   T   T
  0.5663474931706961  0.6837686982737974  0.6503548247562129   T   T   T
  0.2945035022952509  0.9207352853889730  0.6211620963999932   T   T   T
  0.1452098285070078  0.5809276288811749  0.3748982506589063   T   T   T
  0.7961827901467460  0.6334825595237198  0.1355762243487105   T   T   T
  0.6840392125023210  0.8945490939838625  0.8795898946784285   T   T   T
  0.0352576017001152  0.8763790090801150  0.1619779237182783   T   T   T
  0.4090442587019738  0.6455360200623925  0.8873333417627789   T   T   T
  0.1744011376038336  0.9118072482531434  0.8816268010249727   T   T   T
  0.2970112130760522  0.6025441160685090  0.1272236026323691   T   T   T
