Sr Co O 
 1.0000000000000000
     4.7183352779999996   -2.7617390725316802   -0.7865132034104356
    -4.7147804919935110   -2.7826602411908037    0.6656067368303257
     3.0163491304625478   -0.4877132065486657  -18.6759904182937575
 Sr  Co  O  
   8   8  20
Selective dynamics
Direct
  0.2852444233407462  0.7332101720831969  0.5710744328605157   T   T   T
  0.7033403498914217  0.2777636791536383  0.9315244911626333   T   T   T
  0.1046694175752774  0.8826813156362665  0.8090288322847605   T   T   T
  0.8840288493854483  0.1470603747947861  0.6909777498699758   T   T   T
  0.2966596501085796  0.7222363208463627  0.0684755088373686   T   T   T
  0.7147555766592562  0.2667898279168041  0.4289255671394840   T   T   T
  0.1159711506145528  0.8529396252052155  0.3090222501300245   T   T   T
  0.8953305824247245  0.1173186843637331  0.1909711677152405   T   T   T
  0.0000000000000000  0.0000000000000001 -0.0000000000000000   T   T   T
  0.4823491934084208  0.5275269496233544  0.7466989868202902   T   T   T
  0.3879093670657839  0.5986981553085814  0.8849927228455945   T   T   T
  0.5932396257928559  0.3941352442801981  0.6133804926086874   T   T   T
  0.0000000000000005  0.0000000000000001  0.5000000000000003   T   T   T
  0.5176508065915801  0.4724730503766443  0.2533010131797098   T   T   T
  0.4067603742071449  0.6058647557198013  0.3866195073913133   T   T   T
  0.6120906329342184  0.4013018446914188  0.1150072771544038   T   T   T
  0.4399227036553306  0.6416502943804636  0.6617718787629149   T   T   T
  0.1284388437225592  0.4277544797948982  0.8132841257165796   T   T   T
  0.8511893568284048  0.6080447396892470  0.6849691939483988   T   T   T
  0.3684929740987980  0.1571438981773977  0.6990296403865114   T   T   T
  0.6059183730039456  0.8684793226389292  0.8096541722863544   T   T   T
  0.1919898564891175  0.7903224224454005  0.9559140740421732   T   T   T
  0.8408032020151972  0.2437005610976210  0.5568357748976209   T   T   T
  0.2335523217044085  0.2511662967779145  0.9177273173963930   T   T   T
  0.3185955728892192  0.2040351682247093  0.5487140390524589   T   T   T
  0.7014835375272137  0.7417301263721897  0.9264862175328448   T   T   T
  0.5600772963446715  0.3583497056195368  0.3382281212370858   T   T   T
  0.1488106431715969  0.3919552603107520  0.3150308060516014   T   T   T
  0.8715611562774427  0.5722455202051022  0.1867158742834210   T   T   T
  0.3940816269960553  0.1315206773610696  0.1903458277136455   T   T   T
  0.6315070259012040  0.8428561018226021  0.3009703596134882   T   T   T
  0.1591967979848060  0.7562994389023783  0.4431642251023796   T   T   T
  0.8080101435108822  0.2096775775545975  0.0440859259578279   T   T   T
  0.7664476782955937  0.7488337032220863  0.0822726826036072   T   T   T
  0.2985164624727880  0.2582698736278094  0.0735137824671551   T   T   T
  0.6814044271107802  0.7959648317752899  0.4512859609475421   T   T   T
