Sr Co O 
 1.0000000000000000
    -4.7581198531455460    2.7495791750162755    0.7820515002988460
    -4.7337519400334198   -8.2213608638904034    0.8106818679539106
     3.0596412692769865    2.7151569663233444    8.6918838116731383
 Sr  Co  O  
   8   8  20
Selective dynamics
Direct
  0.0103770091051267  0.3035770364166789  0.8429877688781503   T   T   T
  0.9927499488670408  0.7207838689343243  0.1413994534475659   T   T   T
  0.0088744279055963  0.1330034878880491  0.4036704906920345   T   T   T
  1.0059346404641087  0.8504177829127546  0.5954489621556920   T   T   T
  0.4932317905028666  0.7590608054555685  0.8510034225841819   T   T   T
  0.4940710340995768  0.2172021826414942  0.1551634542233960   T   T   T
  0.5184238356300144  0.6203638073499202  0.3725246102891099   T   T   T
  0.5192422220048518  0.3847814924910536  0.5922764774164231   T   T   T
 -0.0192121417689501  0.0010530108338405  0.0013193947674003   T   T   T
  0.5100921624572451 -0.0026983177374760  0.5139786245636517   T   T   T
  0.4717051208249339  0.9152153949697540  0.2454022483955489   T   T   T
  0.5349731648173736  0.1156169704176473  0.8027916019092037   T   T   T
  0.5120711991469282  0.5082096183830229 -0.0111113041802660   T   T   T
  0.0170145543750715  0.4959310036131383  0.4840634602111101   T   T   T
 -0.0157525395749391  0.4017568827818434  0.2158967720379731   T   T   T
  1.0069640550099668  0.5921329141128671  0.7561063769833631   T   T   T
  0.2766678240227418  0.8683390299079570  0.4012362659704546   T   T   T
  0.7542091044487436  0.1024830454666264  0.6436372334948516   T   T   T
  0.7384130778683404  0.8826100989051421  0.3725673305056454   T   T   T
  0.2810866048215360  0.0777356048304598  0.6648411809920604   T   T   T
  0.4926858141064343  0.1146233175038199  0.3711983033014489   T   T   T
  0.5282456712864376  0.7341089234959989  0.1061164730162697   T   T   T
  0.4403421286463692  0.3000075581230935  0.9243036755961508   T   T   T
  0.6597223627612814  0.0161598833081907  0.9246122247966182   T   T   T
  0.1861582047856965  0.9739780144647685  0.1485139346185660   T   T   T
  0.7727645588679394  0.3693968774430335  0.3725537426606770   T   T   T
  0.2509314586880607  0.6224576083513533  0.6168909283147186   T   T   T
  0.2395576311550593  0.3757997910479927  0.3458113806279368   T   T   T
  0.7842626157395827  0.6240659598618006  0.6106404180154109   T   T   T
  0.0356609146334724  0.3879032812785160  0.6191042446409217   T   T   T
  1.0151505402753667  0.6007162238639552  0.3453157952738455   T   T   T
  0.7348291509806392  0.5283775118827566  0.8416700093934922   T   T   T
  0.0111396260711264  0.2098477179046569  0.0728662053660641   T   T   T
  1.0196101846142660  0.8119498248762566  0.8684602173218401   T   T   T
  0.2224451043966097  0.5518902651007592  0.9072150973915899   T   T   T
  0.7302064379183113  0.4749910371102937  0.1242229911737995   T   T   T
