Sr Co O 
 1.0000000000000000
     0.0816271059931413    5.4504778272794336   -0.0215203493608023
     9.8435929619449922    0.1375457023612827   -1.4189696829260028
    -3.4270241246756776   -2.7629428500066444   -8.8642093708022927
 Sr  Co  O  
   8   8  21
Selective dynamics
Direct
  0.5715678838282099  0.8473074083203000  0.1331977295771752   T   T   T
  0.9699885992517077  0.6875764762578139  0.8650732070432756   T   T   T
  0.8210453620542971  0.9143924908240127  0.6065141151222712   T   T   T
  0.7126403721452825  0.5807982008462577  0.3823004439671757   T   T   T
  0.0624396781012820  0.3723916757351007  0.1455655456076612   T   T   T
  0.3893351975041506  0.1228750295782572  0.8535717114898681   T   T   T
  0.3492772988401723  0.4751034223901296  0.6261282828888582   T   T   T
  0.2061867574052673  0.0290260132174938  0.3888549919721820   T   T   T
 -0.0082021183906881  0.0095108141329792  0.0089028879264820   T   T   T
  0.7837571532937834  0.2465277704126851  0.5138291650894511   T   T   T
  0.7839070300101357  0.2527827406578017  0.7702763283380561   T   T   T
  0.5791204697089888  0.1804521693535983  0.2167343621753292   T   T   T
  0.5167548779675408  0.5255692197217776 -0.0062620390543400   T   T   T
  0.2711616582836466  0.7480359918515448  0.4959190359481278   T   T   T
  0.4179039283482234  0.8059887764509150  0.7645603906450541   T   T   T
  0.1162883569360890  0.6985656357908031  0.2272926168360138   T   T   T
  0.8690485058179054  0.4233979863829078  0.5553190251060023   T   T   T
  0.7256434911335933  0.0863871903524218  0.3678307914516454   T   T   T
 -0.0068918882361949  0.1647106722368426  0.6625951509731581   T   T   T
  0.5080460763566719  0.2298347210903268  0.5982017613693046   T   T   T
  0.9821795305287992  0.1959629586658895  0.9226493653846476   T   T   T
  0.5898333988493224  0.3533371804925697  0.2027809201368183   T   T   T
  0.2344394317863642  0.1243213038780833  0.1783934331561166   T   T   T
  0.7127018530690449  0.0745237524251339  0.0845633788717496   T   T   T
  0.5839165629297342  0.3705747146981256  0.8690197619815969   T   T   T
  0.3340565796363098  0.9246607457942282  0.6247779860888187   T   T   T
  0.2093661764997182  0.5705598751610863  0.3663293616787037   T   T   T
  0.5708993671301860  0.6978050402843383  0.6209234754810695   T   T   T
  0.9728080206505426  0.8013703307524808  0.3753962125362351   T   T   T
  0.4271229382559523  0.7945672508303636  0.3590263520610660   T   T   T
  0.1145250076036607  0.7079760187270625  0.6332413913593675   T   T   T
  0.4856884247858416  0.6577714510422346  0.8706071076863547   T   T   T
  0.0480321758484630  0.8384019820900305  0.1225512026893926   T   T   T
  0.7355887062908057  0.9082668118494672  0.8469524175264020   T   T   T
  0.7998446031437209  0.5999436992963367  0.1421201425907959   T   T   T
  0.2499812903065453  0.5748626844325456  0.0726505209125303   T   T   T
  0.2422976965610195  0.9091596003693989  0.9022115225234677   T   T   T
