Sr Co O 
 1.0000000000000000
     0.0945522362144907    5.5521131839315254   -0.0055348363477875
    -9.4533026057667282   -0.1513582573213082    1.6188559309263235
    -1.6732433717995627   -0.0024551629290985    9.5593378759784375
 Sr  Co  O  
   8   8  21
Selective dynamics
Direct
  0.0120596543987833  0.7261664261239607  0.8777608808159182   T   T   T
 -0.0219762900776005  0.2951882199777358  0.1539873420877872   T   T   T
 -0.0133633485659994  0.8457441532403953  0.3905408896662350   T   T   T
  0.0128359161985259  0.1088374456203725  0.6066035782731484   T   T   T
  0.4894037859589079  0.1979365983137623  0.8587143636216245   T   T   T
  0.4763958642333046  0.7804293398673511  0.1372756829010838   T   T   T
  0.4587049310824068  0.3897168202346400  0.3716752731246807   T   T   T
  0.4988000160724408  0.6474247398292635  0.6252794562306500   T   T   T
 -0.0343497030451286 -0.0070079608214340  0.0093409448123771   T   T   T
 -0.0220385386688749  0.4878403132697658  0.5115909561930498   T   T   T
 -0.0271873949343296  0.5857474044748692  0.2436479887506119   T   T   T
  0.0314938512355782  0.4273177512427950  0.7891335353530142   T   T   T
  0.5086799463841759  0.4989668832935929  0.0074303642394943   T   T   T
  0.4653127590969745 -0.0012277705994918  0.4871400173154612   T   T   T
  0.4473214769989373  0.0948914261690988  0.2129117192590957   T   T   T
  0.5161985465090714  0.9152947841552881  0.7566616583158523   T   T   T
 -0.0408786575174437  0.3757931674138595  0.3831389829706648   T   T   T
 -0.0317538764788985  0.6053689943103312  0.6328715473932177   T   T   T
  0.2192511936591960  0.6148715216709498  0.3728098646424469   T   T   T
  1.1503866215254177  0.3410176789178260  0.6571467930715834   T   T   T
  0.7456441179667099  0.6060992915448006  0.3920213090812358   T   T   T
 -0.0214096369740094  0.7958602906670741  0.1416030762498735   T   T   T
  0.1999583432301469  0.5510961096287356  0.1138729549308724   T   T   T
  0.7871755465333282  0.4094641255697397  0.9075836203054458   T   T   T
  0.3230565322240412  0.4498263212066595  0.8681046591442650   T   T   T
  0.7054427545829504  0.5518591540231458  0.1376110638019618   T   T   T
  0.4838979359965161  0.9020211483216520  0.3486451328560607   T   T   T
  0.4970896363107951  0.1186932825874399  0.6086790223487035   T   T   T
  0.2626862655436484  0.8674145754738003  0.6401287797010947   T   T   T
  0.7231819486461831  0.8969592297427686  0.5971939090266388   T   T   T
  0.2199217023425034  0.1047060627522462  0.3658304290934397   T   T   T
  0.4979279287151373  0.2947972376137619  0.1634517829007478   T   T   T
  0.5535688342672589  0.7121183113665138  0.8646629592710816   T   T   T
  0.7006599910284476  0.0664728943813437  0.0985959069983699   T   T   T
  0.2933988445795438  0.9466061994226883  0.8844073074523270   T   T   T
  0.7906976185981688  0.9874435507108281  0.8470002025558740   T   T   T
  0.1898045632233983  0.1052443578855606  0.0669458834025087   T   T   T
