Sr Co O 
 1.0000000000000000
     0.0129209048009034    5.5054049826892237    0.0698171228105379
     9.6644867865583191    0.0187721456828193   -1.4288670081908812
    -3.3675530706630967   -2.8905278492418183   -8.9259408030703504
 Sr  Co  O  
   8   8  20
Selective dynamics
Direct
  0.5672599084051347  0.8733899442187081  0.1047371813974631   T   T   T
  0.9191031921913927  0.6653522729920059  0.8166432149960606   T   T   T
  0.8329691775776223  0.9705015321699254  0.6542739371797300   T   T   T
  0.6984799279324120  0.5274789701644768  0.3762265028873277   T   T   T
  0.0884905462790200  0.3342267574507743  0.1539820595087224   T   T   T
  0.4592739440689400  0.1571568540033955  0.9136805532629531   T   T   T
  0.3211013623224492  0.4011618110211236  0.6323066027069381   T   T   T
  0.2065389404931567  0.0766641112800651  0.3657288058855042   T   T   T
  0.0134383266954378  0.0036704544867898  0.0062817573349286   T   T   T
  0.7643291355701947  0.2434895560564868  0.5216765855926958   T   T   T
  0.8598497944009491  0.3008484314823231  0.7865778534493392   T   T   T
  0.6453530798848254  0.2005979878087489  0.2562270006295717   T   T   T
  0.4958156980705806  0.5255292215647882 -0.0074579520077487   T   T   T
  0.2435326991749024  0.7002846786198011  0.4755742289498747   T   T   T
  0.3837548535533710  0.8070547786306046  0.7584338330728043   T   T   T
  0.0668187153069008  0.6646926420578707  0.1597183429262448   T   T   T
  0.8117703081739285  0.4251254052853840  0.6537971758995090   T   T   T
  0.7191243905032563  0.0660550009612527  0.3883261905456983   T   T   T
  0.0582823201278876  0.2056728263130542  0.6672369467048698   T   T   T
  0.4758726733979058  0.2968129317776779  0.3869287433355134   T   T   T
  0.9453538239322794  0.3025881355483833  0.4025720036001580   T   T   T
  0.5612965127618602  0.1767192600498807  0.6199673195127886   T   T   T
  0.9638345867858458  0.1802542426027592  0.9072844235667492   T   T   T
  0.5876631941456061  0.3423458169356250  0.1518305946079466   T   T   T
  0.3354797192093081  0.0973120013195301  0.1381577245359370   T   T   T
  0.8390194853925033  0.0999038802213566  0.1455419981650662   T   T   T
  0.6186023957023470  0.3860341891506294  0.8806653793889757   T   T   T
  0.2327998672213789  0.5750351040173129  0.3125788918161276   T   T   T
  0.5544231351725241  0.7497762342956091  0.6164914998876310   T   T   T
  0.0607803008930158  0.7396866105413625  0.6021508761417484   T   T   T
  0.4280686871251111  0.6410257129911897  0.8467539177536209   T   T   T
  0.0974943440000198  0.8394597246846023  0.1323909528586588   T   T   T
  0.6845654085038281  0.9179516025126909  0.8735453442930223   T   T   T
  0.7228794863296805  0.6421997878059896  0.1639162098105144   T   T   T
  0.1645131532368377  0.5343981367090755  0.0154988386694565   T   T   T
  0.1913666949727059  0.9108431575211955  0.8643544747022545   T   T   T
