Sr Co O 
 1.0000000000000000
     0.0008750404657753    5.5177261961741131    0.0634502727336818
    -9.7982931227510441   -0.0329662500845543    1.3391254851656569
    -1.3768944163088817    0.1005723070224244    9.5423253314763041
 Sr  Co  O  
   8   8  20
Selective dynamics
Direct
  0.0276906638229947  0.7152651376332310  0.8303580233622005   T   T   T
 -0.0076497326327948  0.3407516723869344  0.0908128884119473   T   T   T
  0.0121991138636105  0.8306168511495824  0.4025478127503093   T   T   T
  0.0483686780241020  0.1617830829020318  0.5976157566995249   T   T   T
  0.5111445061469593  0.2571431681474213  0.8497032122545091   T   T   T
  0.5069533382244342  0.7732848616368997  0.1573830101925952   T   T   T
  0.4971026780650381  0.3944971856443228  0.3632961957109633   T   T   T
  0.5015551634255554  0.5992800610267232  0.6254011531599307   T   T   T
  0.0628307259694590  0.0305974622782043 -0.0352821744920161   T   T   T
 -0.0014165179747812  0.4938593710065639  0.4874736288790249   T   T   T
 -0.0141221109894286  0.5817408868005823  0.2262522504603628   T   T   T
  0.0025136942093402  0.4176403400848818  0.7532474452577407   T   T   T
  0.4969030696010395  0.5294915818001484 -0.0193599907999099   T   T   T
  0.5157297353592359 -0.0341746768248508  0.5076498949198499   T   T   T
  0.4293811285755910  0.0930328142249697  0.2319870161494895   T   T   T
  0.5728772011911424  0.9127640544640164  0.8063376230779360   T   T   T
 -0.0038647434328243  0.3766737323418166  0.3568379720883338   T   T   T
 -0.0106355601341932  0.6029799550959722  0.6214396163698447   T   T   T
  0.2270570143919082  0.6183377938903009  0.3553351476532703   T   T   T
  0.7740946555511735  0.3724951220557369  0.6206234578715385   T   T   T
  0.2391811566726026  0.3855043312189110  0.6119792429629536   T   T   T
  0.7666374055585801  0.6163871998572582  0.3696540636321048   T   T   T
  0.2077101762707199  0.5924006133095134  0.0799298247385889   T   T   T
 -0.0161394183326227  0.2207969978066004  0.8859855624941805   T   T   T
  0.7605511274378821  0.4707805532704748  0.8728581311458664   T   T   T
  0.2640879040626144  0.4699989403766427  0.8615515243966304   T   T   T
  0.7068370200855270  0.5461228419843764  0.1280211730828885   T   T   T
  0.6168839141141197  0.9342416983803808  0.3230544899447398   T   T   T
  0.3682418385386404  0.1379921342990808  0.4168948029168623   T   T   T
  0.7757860688223759  0.9550398974274542  0.6303763764526250   T   T   T
  0.2907688853979116 -0.1593925437077783  0.5918646324226720   T   T   T
  0.5233273702568518  0.7248704736112482  0.8516967611525662   T   T   T
  0.4823802996957626  0.2674490129534642  0.1172502815320146   T   T   T
  0.3210202188776825  1.0326157320336973  0.8191118385897045   T   T   T
  0.8127570278879221  0.9086021165913202  0.9541011614953412   T   T   T
  0.2042563200258799 -0.0134700279707416  0.1507101826091503   T   T   T
