Sr Co O 
 1.0000000000000000
    -4.7124570097001595    2.6587427490510520    0.6909766941008004
    -4.8382872199069302   -8.1645597096768068    0.8604099245362277
     3.1898437321011133    2.5854382990884557    8.7720987823668857
 Sr  Co  O  
   8   8  21
Selective dynamics
Direct
 -0.0051689465023672  0.2908984981979501  0.8620459271615549   T   T   T
  1.0170102832313408  0.7004179966889934  0.1225099165840075   T   T   T
  0.0057470680027909  0.1532620231532676  0.3909998804961110   T   T   T
  0.9976946493851361  0.8652106894274811  0.6288808550423605   T   T   T
  0.4855275814596943  0.7585960049402929  0.8446152281961522   T   T   T
  0.5148144153503287  0.2383666644234781  0.1530560794779748   T   T   T
  0.4820842425688302  0.6266978174165706  0.3964947992785895   T   T   T
  0.4903551960873823  0.3693693045792979  0.6185398333988679   T   T   T
  0.0085155014097266 -0.0012551912313099  0.0061510108298043   T   T   T
  0.4807307067718055  0.0061988921021835  0.5027647218472193   T   T   T
  0.5363973416416632  0.9197698660079400  0.2306181937125335   T   T   T
  0.4712929773290215  0.0787694672838838  0.7658339737570110   T   T   T
  0.5041782837874893  0.4983121032338442 -0.0000607543886692   T   T   T
 -0.0086157315956537  0.5050948820275045  0.4989109966197569   T   T   T
  0.0148736270838516  0.4210792422085205  0.2328072872336081   T   T   T
  0.9796656093029278  0.5823987227464927  0.7650855202277667   T   T   T
  0.3016093469912490  0.8768248461865863  0.3471614884630272   T   T   T
  0.7165944593432337  0.1138162618810517  0.6413766400328514   T   T   T
  0.2285639028035140  0.1192254990186990  0.6134386551378789   T   T   T
  0.4927450909742286  0.8842363035390309  0.6235203609658115   T   T   T
  0.5234020534898820  0.1078280082713444  0.3684584928662773   T   T   T
  0.8106127299874230  0.9789367323288699  0.1554887486852039   T   T   T
  0.2387342935888479  0.0057727745130626  0.8697752382582190   T   T   T
  0.5165582168603220  0.7416268052501139  0.1027234733381814   T   T   T
  0.5031495169992700  0.2567755745866661  0.8966700037733026   T   T   T
  0.7729024496311713  0.3854645326816236  0.3594458507577485   T   T   T
  0.2162776666172064  0.6216118996851864  0.6373375402906247   T   T   T
  0.2337196404429668  0.3871447960375283  0.3804881525474965   T   T   T
  0.7556542366863311  0.6199136911606145  0.6223282058162067   T   T   T
 -0.0083296616789131  0.3891216221536755  0.6244161087044465   T   T   T
  0.9860470582333631  0.6235813903360575  0.3721767253008998   T   T   T
  0.2965548671272310  0.4796490078858966  0.1503263593559875   T   T   T
  0.7116896738204832  0.5187969384156145  0.8498950055039906   T   T   T
  0.0400020613593319  0.1982677170821439  0.1074843891637309   T   T   T
  0.9523691218992318  0.8029406626376070  0.8929435862978807   T   T   T
  0.2213585141583958  0.5325665095373342  0.8887751824552912   T   T   T
  0.7923318076276519  0.4603612398453843  0.0998160893050559   T   T   T
