Sr Co O 
 1.0000000000000000
    -4.7006501447972528    2.7585927782910145    0.7471253867677380
    -4.7816445219866051   -8.4088922888207129    0.9016783288999320
     3.0470657211003522    2.6772655455623000    8.5958527637679545
 Sr  Co  O  
   8   8  20
Selective dynamics
Direct
 -0.0066484390298189  0.3145820495823971  0.8897441333714258   T   T   T
  1.0216706905397883  0.6923444665953105  0.1485190154380037   T   T   T
 -0.0019839155640636  0.1573193220757336  0.3995806300939898   T   T   T
  1.0005805652317370  0.8428619477038046  0.5964401129396241   T   T   T
  0.4988359852151359  0.7672938717919701  0.8388136416117247   T   T   T
  0.4891433252907137  0.2358436437680602  0.1584194499542391   T   T   T
  0.4977925046947983  0.6017201539348749  0.3890669021592335   T   T   T
  0.5115471793096502  0.3841171732857157  0.6288876228894530   T   T   T
 -0.0274454956054440  0.0059742862094756 -0.0186617145006966   T   T   T
  0.5300397368014669 -0.0225484435868897  0.4728454727105114   T   T   T
  0.5716809133493931  0.9204013739504430  0.2126696502140058   T   T   T
  0.4498256317263829  0.0880176540369673  0.7526268790586461   T   T   T
  0.5021159505594855  0.4885623890317038  0.0017013992407682   T   T   T
 -0.0002359783735632  0.4983214972847108  0.5148400495123275   T   T   T
 -0.0035413648671794  0.4073186742025048  0.2448489497944918   T   T   T
  1.0071000946914392  0.5973158405185897  0.7858243610909139   T   T   T
  0.3772891743245890  0.8213021481411039  0.3129170200395870   T   T   T
  0.6831155222398247  0.1240114451135065  0.6273554677242338   T   T   T
  0.8389721641205746  0.9048097211643449  0.3507966048928433   T   T   T
  0.4783883808032149  0.8933369534913487  0.6240780441159494   T   T   T
  0.4586757694283867  0.1049876814198075  0.3651880006466741   T   T   T
  0.6477941542652615  0.9765508560571030  0.0501485672608786   T   T   T
  0.1506416960355636  0.0515165107333891  0.8248753723834936   T   T   T
  0.4840084604382464  0.2714524400068985  0.8747658521487823   T   T   T
  0.7658140228402698  0.3748312446945187  0.3857024337616683   T   T   T
  0.2321077189875447  0.6196867964348528  0.6381702841828345   T   T   T
  0.2309958295569254  0.3811435694100462  0.3866626273291950   T   T   T
  0.7713250807452097  0.6209263197867402  0.6416709968135192   T   T   T
  0.0089227147948015  0.3927604599072517  0.6558400068193925   T   T   T
  0.9905470275997261  0.6047604112436614  0.3790049074452336   T   T   T
  0.2508467882680525  0.4595872139274989  0.1331331621485641   T   T   T
  0.7516140261395475  0.5691332895400789  0.9124894569352449   T   T   T
  0.0113734193768749  0.1884748181122077  0.1259570103201443   T   T   T
  1.0330280456601750  0.8104616662272495  0.9065671783617593   T   T   T
  0.2688001684965449  0.5680350032363287  0.9092769776655248   T   T   T
  0.7371127031102679  0.4556357128531143  0.1319333036450565   T   T   T
