Sr Co O 
 1.0000000000000000
    -4.7500095136519382    2.9273505601825707    0.9843085957949027
    -4.4039225708776755   -8.3351367910647092    0.4643604195591787
     2.7834005281944871    3.1575933281588644    8.9306170221249275
 Sr  Co  O  
   8   8  20
Selective dynamics
Direct
  0.0070016549163824  0.2913609620883745  0.8811936120719410   T   T   T
  1.0103077504281144  0.7088803925278725  0.1548126940148448   T   T   T
 -0.0060143849719718  0.1170924489504064  0.3613856560947846   T   T   T
  0.9701082583114069  0.8848284177518326  0.6088503813685748   T   T   T
  0.4817895046362099  0.7940137180725386  0.8628171265036014   T   T   T
  0.5144522210806722  0.2199829030723799  0.1302011640537974   T   T   T
  0.5128180813200782  0.6150021481137382  0.3807388826710958   T   T   T
  0.4923738446667383  0.3649706140336106  0.6404511699081804   T   T   T
 -0.0144857877343004 -0.0011405779764433  0.0077907411703027   T   T   T
  0.4905664343892621 -0.0098653952667866  0.4983102521860884   T   T   T
  0.4947667480023372  0.8941480304798229  0.2140110439303073   T   T   T
  0.5109563550139034  0.0898936776042284  0.7625063211853720   T   T   T
  0.5230447356837725  0.4933123989245440  0.0021214129949066   T   T   T
 -0.0265309589936465  0.4942215045444243  0.5042483133665842   T   T   T
  0.0075103504273566  0.4154368453626121  0.2318239675105227   T   T   T
  0.9587481706340107  0.6118650153928546  0.7973322375061783   T   T   T
  0.2595899081485368  0.9005380322936221  0.3659670884254370   T   T   T
  0.7354656037485154  0.1242352170264294  0.5933287833328632   T   T   T
  0.7039308637577283  0.8695866012543974  0.3489550921601566   T   T   T
  0.2670294585314614  0.1180879709780027  0.6470157103279017   T   T   T
  0.4878968457363969  0.8752785798225007  0.6360279791476436   T   T   T
  0.7327242341341521  1.0014858119069299  0.1502537712920014   T   T   T
  0.5719999432154625  0.7034591007565559  0.0685252492883939   T   T   T
  0.4504483365370617  0.2828409154984221  0.8993530451014595   T   T   T
  0.7341313723760042  0.0528558708157539  0.8736632317613646   T   T   T
  0.2578135006392397  0.9515072394347630  0.1161137248674363   T   T   T
  0.7717195190593058  0.3520790876421835  0.3606682299248827   T   T   T
  0.2414799662290534  0.3864573281295484  0.4531992788816046   T   T   T
  0.7558843531418203  0.6095753328741086  0.6507997631867810   T   T   T
  0.9998247268061173  0.6222470837701782  0.3905973047750537   T   T   T
  0.2798227234325600  0.4966557600850389  0.1545859002016722   T   T   T
  0.7570465441564553  0.4761305002912326  0.8424875343584742   T   T   T
  0.0664443837770727  0.2107512001111488  0.1024488226425100   T   T   T
  1.0426782433015034  0.8180321191121344  0.8405636630727272   T   T   T
  0.2228367414367821  0.5488157147611203  0.8451281718667343   T   T   T
  0.7658196726705829  0.4613774650308236  0.1277221860301750   T   T   T
