Sr Co O 
 1.0000000000000000
     4.8210973824658465   -2.6814870244672822   -0.7576484874170222
    -4.9044106327285233   -2.8448301340988977    0.6923690804209669
     1.4983588736816653   -0.1188764122233650   -9.2861939927128638
 Sr  Co  O  
   4   4  10
Selective dynamics
Direct
  0.2800730380629137  0.7363442925853745  0.1630941456375801   T   T   T
  0.7099417253810264  0.2720913002122189  0.8520837137109033   T   T   T
  0.1342885190389761  0.8596608570952625  0.5826577585077976   T   T   T
  0.8706314928111767  0.1606332453815817  0.4044558210889759   T   T   T
 -0.0564282269176314 -0.0259048518643775  0.0404500351147379   T   T   T
  0.4951739565205664  0.5094530760113490  0.5025835370808579   T   T   T
  0.4481701417640518  0.6160797422629176  0.7661851602233571   T   T   T
  0.5897302848169128  0.3972663896438977  0.2252601007488325   T   T   T
  0.5861121598468161  0.3681605536511812  0.6377570733060650   T   T   T
  0.4031146379976359  0.6153157514094564  0.3561299408039900   T   T   T
  0.1494007583250847  0.4427436119914200  0.6567071214497029   T   T   T
  0.8399563216321857  0.5964915060493299  0.3692423843103576   T   T   T
  0.3528635957342048  0.1597452474356466  0.3794512276644649   T   T   T
  0.6485412554576587  0.8712754631217033  0.6145857969164811   T   T   T
  0.8038905896385838  0.2000739420123503  0.1489074688809796   T   T   T
  0.8569940556498857  0.6342818848007472  0.0711064046018070   T   T   T
  0.3132967267191619  0.1746715604271008  0.0786590703686587   T   T   T
  0.6722488612859793  0.8196163528210437  0.9066832629065414   T   T   T
