Sr Co O 
 1.0000000000000000
     0.0584615426328554    5.4936892147518703    0.0944312874034096
    -9.5318961621935383   -0.0888978147969218    1.4762486465806428
    -1.5449336917040966    0.1409803791341617    9.5667701205601414
 Sr  Co  O  
   8   8  20
Selective dynamics
Direct
 -0.0200041388579944  0.7144928735201306  0.8435077412529342   T   T   T
  0.0221592081378332  0.2605554753203616  0.1558364104950247   T   T   T
 -0.0117505380141886  0.8887527443936990  0.3951176135336334   T   T   T
 -0.0041529006493005  0.0970779080131442  0.6357726602728976   T   T   T
  0.4946851359854557  0.2102136558954658  0.8637348919503975   T   T   T
  0.5000012296276418  0.8251741282717537  0.1160506655593933   T   T   T
  0.4976202348498788  0.3294778456788480  0.4063768791327745   T   T   T
  0.5091684987700533  0.6415816003621185  0.6215266202539632   T   T   T
 -0.0013391043851308  0.0189159381934465 -0.0139011336286723   T   T   T
  0.0467850074607635  0.5129313565630028  0.4962566999092103   T   T   T
 -0.0993823795623004  0.5607805061185821  0.2329071224205698   T   T   T
  0.0214900776185251  0.4135413345858860  0.7695421750390145   T   T   T
  0.5084265371299119  0.4966851294444088 -0.0126873786804941   T   T   T
  0.4929407591235710 -0.0035424130831321  0.5038340414624743   T   T   T
  0.5120303634095438  0.0927251746800247  0.2359233056622591   T   T   T
  0.4846098625500070  0.9010030533342617  0.7716412082053188   T   T   T
  0.0713424132295623  0.4135137685677620  0.3574386837858157   T   T   T
  0.0285167093079763  0.6099346393235907  0.6294146427150872   T   T   T
  0.2683603552909501  0.3977204330166834  0.6156823765878476   T   T   T
  0.8104916084870588  0.6319149149634647  0.3875869769367531   T   T   T
 -0.0196444165764917  0.2116624613270330  0.8368252580727019   T   T   T
  0.7165738623425016  0.4530448034732719  0.8311448343785964   T   T   T
  0.2178984470119140  0.4335454219656966  0.9283664945039375   T   T   T
  0.7286851453351404  0.5999709943270245  0.0763747482561945   T   T   T
  0.4784809800875500  0.8901907875832173  0.3658815447797751   T   T   T
  0.5010226673331308  0.1057736917838184  0.6422589097797836   T   T   T
  0.7364495301734981  0.1153017728717677  0.3793769471873232   T   T   T
  0.2549114644837182  0.8820233580254850  0.6309004001996693   T   T   T
  0.7207248232340776  0.8764108512334889  0.6272699978473734   T   T   T
  0.2697743321036540  0.1182795885793804  0.3775657105401208   T   T   T
  0.5455767409942361  0.3128731767978515  0.1411987625625538   T   T   T
  0.4442749031369063  0.6916534663064308  0.8628595846242382   T   T   T
  0.7850493489465563  0.0280656845373768  0.1352658120928673   T   T   T
  0.2220936774211029  0.9226439931374356  0.9039508105777608   T   T   T
  0.7368863162289225  0.9374103063159631  0.8904091195930688   T   T   T
  0.2762438395168747  0.0626994297950606  0.1027886266254836   T   T   T
