Sr Co O 
 1.0000000000000000
     4.7882577334148078   -2.7250984125115134   -0.6510665745647998
     4.7900815497917266    8.1623129546448006   -0.7216728610088526
    -1.4193250859121824   -0.0584327965519688    9.4278235580109087
 Sr  Co  O  
   8   8  22
Selective dynamics
Direct
  0.4123499131469586  0.1209053683602534  0.8589336391012022   T   T   T
  0.0939538867734638  0.3638642144259505  0.1573313380083377   T   T   T
  0.2046240295332021  0.0655492303540823  0.3928727761455067   T   T   T
  0.3014715317485680  0.4351425105293451  0.6005828004294275   T   T   T
  0.9325642727960112  0.6446913741183240  0.8601156796681021   T   T   T
  0.5685947104106838  0.8683437799414843  0.1465137821562836   T   T   T
  0.7038089052815579  0.5627487632877425  0.3896632215648364   T   T   T
  0.8013324512673482  0.9196532748692424  0.6090438169479059   T   T   T
  0.0004360968092306 -0.0097497616199754  0.0102028855111445   T   T   T
  0.7538373178429003  0.2440091613461052  0.4956357632695144   T   T   T
  0.6198408106213124  0.2113906141872245  0.2234559487065523   T   T   T
  0.8838014422418787  0.2889743787092579  0.7543634152817672   T   T   T
  0.5077612678045208  0.5251087258848464  0.0249524444724559   T   T   T
  0.2542716123451236  0.7456966572462078  0.5033145621546813   T   T   T
  0.1114467961155170  0.7174299851836099  0.2395850543871565   T   T   T
  0.3900627629959958  0.7806138742584043  0.7685317671391997   T   T   T
  0.9131076942530312  0.2995188186285731  0.3609945067723109   T   T   T
  0.5962114592947833  0.1924892871468280  0.6524760382329511   T   T   T
  0.4624430417493628  0.3028940562708695  0.3753383465017697   T   T   T
  0.0474595837104832  0.1760646200761639  0.6169933862339962   T   T   T
  0.8090939042282794  0.4252647849153449  0.6197790988852530   T   T   T
  0.6899173393749145  0.0741582756943637  0.3596922289127855   T   T   T
  0.3235388447361894  0.1188448481535369  0.1115300862864938   T   T   T
  0.1229519720119664  0.3662280024141836  0.8973333527627586   T   T   T
  0.5682560795763051  0.3784051253655145  0.1254985333971439   T   T   T
  0.8057987313035384  0.1360656130641643  0.0711057559270683   T   T   T
  0.4095355680609301  0.8074301196549331  0.3693650633546133   T   T   T
  0.0990421199434067  0.6858462344484797  0.6393083898863564   T   T   T
  0.9534515197040498  0.7993539472274330  0.3893910602296551   T   T   T
  0.5493887885270579  0.6879604141616930  0.6215118804137835   T   T   T
  0.3157963910611554  0.9167796767512199  0.6351712634655144   T   T   T
  0.1958219859669733  0.5732223398947962  0.3665749945761710   T   T   T
  0.8196527936896277  0.6202656295805807  0.1188995164838069   T   T   T
  0.6796364319565444  0.8841394620385759  0.8773214303560344   T   T   T
  0.0392710727734143  0.8867110446002189  0.1641099633612457   T   T   T
  0.4584865594057819  0.5992527260679550  0.8552547179275475   T   T   T
  0.1763031882913040  0.8940193823176650  0.8845196831931035   T   T   T
  0.2806765850086085  0.6427134628846337  0.1007316964362170   T   T   T
