Sr Co O 
 1.0000000000000000
    -0.0000000000000000    5.5279742978256001    0.0000000000000000
    -9.6901108804211020    0.0000000000000000    1.4458821613318871
    -1.5453288695891447    0.0000000000000000    9.6290823267863033
 Sr  Co  O  
   8   8  20
Selective dynamics
Direct
 -0.0216272693996125  0.7408888532780294  0.8555700370964486   T   T   T
 -0.0216272693996125  0.2591111767219720  0.1444299629035561   T   T   T
 -0.0105262074728892  0.9050027918189401  0.3651717107580326   T   T   T
 -0.0105262074728891  0.0949972381810577  0.6348282892419701   T   T   T
  0.4802292543577500  0.1910608283398138  0.8900203040159714   T   T   T
  0.4802292543577500  0.8089392016601876  0.1099796959840325   T   T   T
  0.4683340310453432  0.3422248921580052  0.3587742920737948   T   T   T
  0.4683340310453432  0.6577751378419954  0.6412257079262079   T   T   T
 -0.0168195067538208  0.0000000150000002  0.0000000000000000   T   T   T
  0.0463932879088679  0.5000000150000000  0.5000000000000016   T   T   T
 -0.0226549715378710  0.6047195903318318  0.2069076567783924   T   T   T
 -0.0226549715378710  0.3952804396681694  0.7930923432216087   T   T   T
  0.4564741155132983  0.5000000149999989  0.0000000000000003   T   T   T
  0.4906983043660099  0.0000000150000001  0.5000000000000017   T   T   T
  0.4878092160748393  0.0818648088117921  0.2345123855372384   T   T   T
  0.4878092160748396  0.9181352211882090  0.7654876144627658   T   T   T
  1.1136529998393820  0.3398529732574409  0.6303205253184109   T   T   T
  1.1136529998393816  0.6601470567425570  0.3696794746815918   T   T   T
 -0.0181063437708684  0.7925473474424615  0.0896251583493450   T   T   T
 -0.0181063437708684  0.2074526825575385  0.9103748416506586   T   T   T
  0.1910834825175347  0.4841343627561125  0.1615441512346120   T   T   T
  0.6835128905154015  0.4615174949278307  0.8207041736714354   T   T   T
  0.1910834825175347  0.5158656672438852  0.8384558487653899   T   T   T
  0.6835128905154015  0.5384825350721686  0.1792958263285648   T   T   T
  0.4958342162284362  0.8902370420795458  0.3730277940121924   T   T   T
  0.4958342162284362  0.1097629879204502  0.6269722059878114   T   T   T
  0.7191917292629529  0.1234177245948888  0.3714012386651378   T   T   T
  0.2547935782653802  0.8817932464508128  0.6275360860043022   T   T   T
  0.7191917292629529  0.8765823054051093  0.6285987613348649   T   T   T
  0.2547935782653802  0.1182067835491874  0.3724639139957009   T   T   T
  0.4953779422266940  0.2810120767607983  0.1116178661807903   T   T   T
  0.4953779422266940  0.7189879532392006  0.8883821338192146   T   T   T
  0.7363280373212449  0.0216425613799295  0.1334431103254802   T   T   T
  0.2323945828997453  0.9734893955669237  0.8671892308362268   T   T   T
  0.7363280373212449  0.9783574686200727  0.8665568896745230   T   T   T
  0.2323945828997453  0.0265106344330786  0.1328107691637738   T   T   T
