Sr Co O 
 1.0000000000000000
     0.0392468893326081    5.5707945909848000    0.0446234963558913
    -9.1999619616696791   -0.0477541386651113    1.6988743471515406
    -1.7429551925927029    0.0677756059651065    9.6136682487687075
 Sr  Co  O  
   8   8  20
Selective dynamics
Direct
  0.0015777797039734  0.7052140373852853  0.8581347898008370   T   T   T
  0.0049353287330499  0.2903904395153449  0.1240088637067708   T   T   T
  0.0073570285649646  0.8683364538378512  0.4002190615620991   T   T   T
  0.0154288031184124  0.1071520580895023  0.6372174335319494   T   T   T
  0.5140791458653465  0.2081235498109715  0.8446428068801906   T   T   T
  0.4879592303909585  0.7970890039230508  0.1317977599958351   T   T   T
  0.4811509011305808  0.3860806728828561  0.3898584769876456   T   T   T
  0.5082704578972775  0.6279698309774235  0.6273848116675385   T   T   T
 -0.0118570788925416 -0.0036586017411746  0.0006723960267363   T   T   T
  0.0010480671334167  0.5091605034789229  0.5029530217578974   T   T   T
 -0.0094789385571542  0.5939411750108148  0.2292435969057339   T   T   T
  0.0145047601484091  0.4107698593905255  0.7653540155985042   T   T   T
  0.5107712700268359  0.4958811402354865  0.0048027683894028   T   T   T
  0.4817085343567532  0.0053910327109246  0.4969026321956795   T   T   T
  0.4769261070401409  0.0984424511974856  0.2184675997619512   T   T   T
  0.5050108899764898  0.9075323192612040  0.7641281694925672   T   T   T
  0.0120656292283377  0.6313479337557562  0.6236257865956875   T   T   T
  0.2204384912881048  0.6242529729637936  0.3559220022265905   T   T   T
  0.7825229303449832  0.3716577136685862  0.6317788010181682   T   T   T
  0.2334757533091524  0.3784006915121336  0.6215708581193519   T   T   T
  0.7705547427817444  0.6157771189219774  0.3676502220228375   T   T   T
  0.2214533879789837  0.5459560030772596  0.1241792535643256   T   T   T
  0.7784118886531531  0.4242251506866315  0.8904332177717725   T   T   T
  0.2581954964987996  0.4043535570445917  0.8937121710879955   T   T   T
  0.7534925198802510  0.5854095085389006  0.1121971058277317   T   T   T
  0.5235499404676415  0.9046812655430364  0.3652213777440395   T   T   T
  0.5021335806231837  0.1173561514491896  0.6220862868746070   T   T   T
  0.2620745500308844  0.8770829980164528  0.6382458476710906   T   T   T
  0.7303424334511881  0.8915339356107723  0.6146884168868936   T   T   T
  0.2427478206637684  0.1308976928995181  0.3742499181379301   T   T   T
  0.5477990792491516  0.3031123251244369  0.1631735822357190   T   T   T
  0.4977388235587215  0.6904659735761493  0.8604643771561361   T   T   T
  0.7282597632159212  0.0597280299115004  0.0904392169148358   T   T   T
  0.2496396936525013  0.9547225185821726  0.8950353627863304   T   T   T
  0.7774642435034681  0.9533224342478283  0.8739580800829660   T   T   T
  0.1922472116877950  0.0249000655995156  0.1348796872530398   T   T   T
