Sr Co O 
 1.0000000000000000
    -0.0150046894151383    5.6004429467959636    0.1146859902826821
    -9.6000156582280667   -0.0040196957169667    1.4592822375979255
    -1.5297103049279952    0.2006080946214981    9.5049199687454582
 Sr  Co  O  
   8   8  20
Selective dynamics
Direct
 -0.0150309430927725  0.7455763976521875  0.8259664858821892   T   T   T
  0.0211718579568325  0.2499212346004362  0.1631119277470909   T   T   T
 -0.0130088266733948  0.8706203809913602  0.4060522782088573   T   T   T
 -0.0081917703723712  0.1341687123666912  0.6010025457828085   T   T   T
  0.5041029605681061  0.2039167881460105  0.8420965086454696   T   T   T
  0.5038013147871876  0.8100993392572503  0.1412654145474284   T   T   T
  0.4953841882257779  0.3571081491665736  0.4233867133772941   T   T   T
  0.4789301831831896  0.6479863512689410  0.5915689129361044   T   T   T
 -0.0152506160476902  0.0120706915463648 -0.0237358425666846   T   T   T
 -0.0198611461543675  0.5018543159870148  0.4994100818890874   T   T   T
 -0.0300919212442635  0.5880778555923106  0.2400651727177006   T   T   T
 -0.0165713559302418  0.3956625374059860  0.7667774986288625   T   T   T
  0.6051937920675190  0.5351661929336877 -0.0356156273491328   T   T   T
  0.4900607461697465  0.0015393547055266  0.5022491041033764   T   T   T
  0.5365295779658811  0.0821722221952583  0.2402422174405850   T   T   T
  0.4739457522992541  0.9003138485342221  0.7718979749733204   T   T   T
  0.0274528390285438  0.3931088474470374  0.3564383227634094   T   T   T
 -0.0517366795650196  0.5956662315737231  0.6502781174530868   T   T   T
  0.1879519015650222  0.6512637155317962  0.3482893268025959   T   T   T
  0.7661702532192490  0.3612925333955482  0.6185218470081034   T   T   T
  0.2333898652224030  0.4060040533641259  0.6203475046246950   T   T   T
  0.7259788587226714  0.6056576891602518  0.3849484889145636   T   T   T
  0.0503063115081406  0.2016787009913729  0.8511564397184604   T   T   T
  0.7675632839923968  0.3837429421808331  0.9321001481690649   T   T   T
  0.7956899223472026  0.6151892952081043  0.0818372144000269   T   T   T
  0.4969515433584210  0.8823384861264714  0.3793100527463444   T   T   T
  0.4727814991284431  0.1024798689249955  0.6420123419444896   T   T   T
  0.7365518342588636  0.1237761370715551  0.3767610770417198   T   T   T
  0.2486348363282030  0.8872187290670775  0.6248513111928035   T   T   T
  0.7105293834290874  0.8838721076759299  0.6270120960888729   T   T   T
  0.2830411856789120  0.1272533864751363  0.3688576948145029   T   T   T
  0.4385692699535793  0.6867140631121593  0.8548901065393778   T   T   T
  0.8238393818404198  0.0153560916629175  0.1493531687260414   T   T   T
  0.2276616238461674  0.9086868509255907  0.9234898946152669   T   T   T
  0.7186367428488996  0.9427112649303290  0.8919237784660075   T   T   T
  0.3429225490546039  0.0957343213330799  0.0978795889530424   T   T   T
