Sr Co O 
 1.0000000000000000
    -0.0225740999878463    5.4694196569455347    0.0385748754325713
    -9.6507499496533935    0.0331948097308056    1.2813143372353546
    -1.3568356295841311    0.0703806518910539    9.4255826057575955
 Sr  Co  O  
   8   8  21
Selective dynamics
Direct
  0.0123877966966416  0.7352986852014782  0.8490784387494242   T   T   T
 -0.0052349512766897  0.2799048767499731  0.1532915632016200   T   T   T
  0.0108919890457189  0.8848128918016438  0.3883205738907064   T   T   T
  0.0115869975052350  0.1227574238586094  0.6221945880404772   T   T   T
  0.4934076606683706  0.2186325600782249  0.8464205523638009   T   T   T
  0.4998760102732527  0.7930407246486035  0.1169299537514078   T   T   T
  0.5143546023181992  0.3420032203294991  0.4063543534236435   T   T   T
  0.5422596858856837  0.6371990402580311  0.6309176442149838   T   T   T
  0.0103005862926579  0.0034382730489001 -0.0089233712472423   T   T   T
  0.0227423850650357  0.4947957715056923  0.5109121921711167   T   T   T
 -0.0140491386101440  0.5903811004034366  0.2136638733186049   T   T   T
 -0.0292503644796974  0.4031218442005953  0.7723070809460231   T   T   T
  0.4956415261686652  0.4998936736927911  0.0126407926523779   T   T   T
  0.5145715076967403 -0.0012138623198428  0.4939709088342100   T   T   T
  0.4727948254878796  0.0896491587021735  0.2303450945994614   T   T   T
  0.5114154034211901  0.9149463865325976  0.7626911778139991   T   T   T
  0.0747948605023286  0.4204261271384977  0.3500055303652276   T   T   T
  0.0285790115941482  0.5936075136615899  0.6619023417826577   T   T   T
  0.7525719730515086  0.3730790321101137  0.6132044671523886   T   T   T
  0.2321001576305192  0.3674350506282271  0.6398245044380002   T   T   T
  0.8600153341052087  0.6398535108072156  0.3854860310590874   T   T   T
  0.0089329364017488  0.7782149760461705  0.1162930491139284   T   T   T
 -0.0046921248669787  0.2260479833749636  0.8990136921480165   T   T   T
  0.1683807734506795  0.5282293327399996  0.0576406398983171   T   T   T
  0.6867168029955885  0.4596691743495325  0.8680572678448433   T   T   T
  0.6616151349476692  0.5304111483341392  0.1719892057970932   T   T   T
  0.5092718066879863  0.8961788116961850  0.3450065074265736   T   T   T
  0.5247840498676236  0.1021058865018062  0.6329835673597384   T   T   T
  0.7357737714794178  0.1203593909351348  0.3577480270865921   T   T   T
  0.2987250879957710  0.8748337654262588  0.6202819588164380   T   T   T
  0.7564041686307276  0.8845214573083713  0.6215055445398430   T   T   T
  0.2602415919282887  0.1162263280154764  0.3970501897554436   T   T   T
  0.4889667832924908  0.2677876120208964  0.1086860956941849   T   T   T
  0.5131603904367562  0.7205975475183229  0.8743981883263144   T   T   T
  0.2364172208800653  0.9705638032044048  0.8535423793888162   T   T   T
  0.7205786224255873  0.9736023601220859  0.9084382551654611   T   T   T
  0.1909649487752179  0.0335874849517295  0.1391267266566051   T   T   T
