Sr Co O 
 1.0000000000000000
    -0.0382063531314705    5.5244754871409327    0.0956248605768385
     9.4445409295114402   -0.0423308603306646   -1.4038846009887105
    -3.2115604189029838   -2.9217068041534100   -8.8330432288264422
 Sr  Co  O  
   8   8  20
Selective dynamics
Direct
  0.5743320874029969  0.8337605640064428  0.1732875279540161   T   T   T
  0.9405195060190199  0.6310370876021338  0.8515937723204091   T   T   T
  0.8150274746051361  0.9283747245953289  0.6038045635408483   T   T   T
  0.6955611908785118  0.5554622772601889  0.3947725083481239   T   T   T
  0.0497891816362500  0.3604038341570183  0.1380287672328842   T   T   T
  0.4317112563260831  0.1656862905118090  0.8403592099624577   T   T   T
  0.3100703590756105  0.4324526006662906  0.6151074273392998   T   T   T
  0.1916504955252078  0.0736471133938635  0.3963853953968124   T   T   T
 -0.0045890227237438 -0.0150316177836191  0.0113695240410256   T   T   T
  0.7433942396093725  0.2497155336459467  0.4824203032393901   T   T   T
  0.8913457477198734  0.3037085079161869  0.7496995174683120   T   T   T
  0.6158443634209182  0.2046108557926727  0.2134620659328088   T   T   T
  0.4976190501026868  0.5009162745254766  0.0061994371944033   T   T   T
  0.2666508816608059  0.7541333965035319  0.5205645661910531   T   T   T
  0.3761490431196009  0.8017768115918034  0.7832246954260992   T   T   T
  0.1069522179801687  0.7065503457640921  0.2384221217359661   T   T   T
  0.7859763202416243  0.4301123787708701  0.6047196844378977   T   T   T
  0.6841031264106966  0.0725941660654646  0.3414412694317838   T   T   T
  0.0398271259813733  0.1914387784527220  0.6181265961466443   T   T   T
  0.4395832915957015  0.2950845433793455  0.3464392931867727   T   T   T
  0.9318449166318438  0.3189695516461996  0.3700390947745571   T   T   T
  0.5842132080233615  0.1881983367452432  0.6135454620331240   T   T   T
  0.4751903250515143  0.3182665387250518  0.0879835594667448   T   T   T
  0.2158426973338077  0.4118191136851024  0.8436768614904090   T   T   T
  0.7858399084798137  0.1091622974276029  0.0695744417963396   T   T   T
  0.7446219092175367  0.3846922312815921  0.8845806669549203   T   T   T
  0.3693285864395177  0.9383551325020066  0.6694218669359622   T   T   T
  0.5553661880797099  0.6955855676168596  0.6573432069113954   T   T   T
  0.9754451057859144  0.8045573729439995  0.3859947269218995   T   T   T
  0.4371680063226950  0.7800802908310283  0.3897431050284657   T   T   T
  0.0705969976000981  0.6848676229278219  0.6206301224149111   T   T   T
  0.4796779145015341  0.6908413361904873  0.9177403358421646   T   T   T
  0.0950352667455444  0.8818454797013822  0.1538765912850609   T   T   T
  0.7995139153384259  0.5847466873397664  0.1645134983924586   T   T   T
  0.2684608405912266  0.5942177039825988  0.1283489824604590   T   T   T
  0.1393365202546874  0.9243604425665845  0.8715593852123948   T   T   T
