Sr Co O 
 1.0000000000000000
     4.7330217940758681   -2.8382234988458523   -0.8264278607707741
    -4.7021181893366446   -2.7890092710292800    0.8256434783119345
     3.4879003071878039   -0.0311662594412990  -19.1508385603197446
 Sr  Co  O  
   8   8  21
Selective dynamics
Direct
  0.3102318298911891  0.7779197922200005  0.5711782668036725   T   T   T
  0.6891498618114617  0.2775126140412864  0.9416202944637175   T   T   T
  0.1014464660326529  0.8665276452971773  0.8293192137441838   T   T   T
  0.8780434377418590  0.1333155672368701  0.7150499531133574   T   T   T
  0.2826674780864020  0.7012043177907290  0.0605935448671869   T   T   T
  0.7200428723976739  0.2964765750864237  0.4107212225719189   T   T   T
  0.1352823542827926  0.8778977294054552  0.2859188769686926   T   T   T
  0.8682421829069160  0.1192517803136710  0.1785171428533949   T   T   T
 -0.0132927446755934 -0.0086665651882510  0.0017594553601339   T   T   T
  0.5289094846621785  0.4770786840281813  0.7456157742390175   T   T   T
  0.4024632496575046  0.5712525036084277  0.8821669620402229   T   T   T
  0.7001658623431967  0.4673828131131154  0.6048737603250588   T   T   T
 -0.0540416943663007 -0.0229741127487138  0.5007309438575258   T   T   T
  0.4926551714740899  0.5268293698131890  0.2530610919004457   T   T   T
  0.4087434953145350  0.6452730101818354  0.3880087398352512   T   T   T
  0.5775045056485755  0.4105082579501463  0.1176388650486920   T   T   T
  0.5780285833013901  0.3354626825876548  0.8158652543443753   T   T   T
  0.3772272052422895  0.2284900725461071  0.6623512473533301   T   T   T
  0.1731158179341354  0.4046685111415051  0.8075006788467229   T   T   T
  0.8956989935846386  0.5856505540085046  0.6878471227684895   T   T   T
  0.6359932873137348  0.8227932197916596  0.8120837196440230   T   T   T
  0.2368775643403378  0.8179562998070338  0.9358113815371629   T   T   T
  0.9141271484135904  0.3160508638068174  0.5212344929937617   T   T   T
  0.1515013067956967  0.2837782931233181  0.9380230092842972   T   T   T
  0.7659707346765106  0.8231644210730261  0.5906058098431791   T   T   T
  0.6835502637981483  0.7358440804297642  0.9390397623251182   T   T   T
  0.5429929454730241  0.3820663911154301  0.3214068277352587   T   T   T
  0.4138355498349781  0.6491937680176124  0.1852607659828009   T   T   T
  0.1537942880321033  0.4835033531805361  0.3231039499086705   T   T   T
  0.8301649429897953  0.5798788217875600  0.1866083548255118   T   T   T
  0.3497345881665391  0.1733937064439354  0.1899699317805895   T   T   T
  0.6574873051035874  0.8893149625346164  0.3094157853916560   T   T   T
  0.2514727346062818  0.9012635081996050  0.4572297794976071   T   T   T
  0.7338224540647076  0.1565607548353568  0.0650075645811591   T   T   T
  0.8228216060119207  0.6931943295007268  0.0612882594108780   T   T   T
  0.2877523684004713  0.2438938675579899  0.0628946557597228   T   T   T
  0.6338161209054118  0.7230873276522103  0.4523276943664593   T   T   T
