Sr Co O 
 1.0000000000000000
    -4.6740746837554106    2.7600700485144887    0.7730055217157857
    -4.7631437571473834   -8.4236533203590458    0.9552448147803521
     3.0406100308586677    2.7008770691063972    8.6958158008834037
 Sr  Co  O  
   8   8  20
Selective dynamics
Direct
  0.0144094785140621  0.3065328862265660  0.8785679409689154   T   T   T
  1.0006687755561023  0.6814609846898277  0.1221365921313478   T   T   T
 -0.0046068433399160  0.1640682115969236  0.3895390526974252   T   T   T
  0.9994400767692673  0.8401192718054580  0.6001229759984628   T   T   T
  0.5077090531777511  0.7607525664793519  0.8441883325584293   T   T   T
  0.5124173111936573  0.2325257815576250  0.1457100609085229   T   T   T
  0.5012672553693048  0.5992856042603848  0.3698548763337534   T   T   T
  0.4867372763032827  0.3969156053500787  0.6345726186801756   T   T   T
  0.0281439488751190  0.0020614255890684 -0.0234365847055001   T   T   T
  0.4281749008671473 -0.0042298813118487  0.4747906751802107   T   T   T
  0.4278296078376346  0.9116272658027011  0.2020831383830595   T   T   T
  0.5504973995731323  0.0867482898940871  0.7485007185626568   T   T   T
  0.5071588768298302  0.4990330681841503  0.0029484100599925   T   T   T
 -0.0001231934943752  0.5013646731453556  0.5021786543013737   T   T   T
  0.0067367321982766  0.4084214354051517  0.2355174906742582   T   T   T
  0.9953128054896930  0.5898018431602140  0.7692362983876240   T   T   T
  0.1620894220260879  0.9067075631448304  0.3417587371943644   T   T   T
  0.5362074731844505  0.8980721580252031  0.6055443397191024   T   T   T
  0.2994383919444645  0.1384079660098013  0.6391666402696269   T   T   T
  0.5656673690990601  0.0805583918729632  0.3390414093518252   T   T   T
  0.5319527009860826  0.7284108407955796  0.1501957234293917   T   T   T
  0.5199483239565232  0.2587705248137283  0.8812830012958954   T   T   T
  0.8483069757779109  0.0421211354184720  0.8200297760359230   T   T   T
  0.3539933059327749  0.9770163051166852  0.0420473388733838   T   T   T
  0.7681605010702488  0.3831935759312441  0.3738247563743199   T   T   T
  0.2305414038928377  0.6240253832492687  0.6321925019350793   T   T   T
  0.2365375669686062  0.3795499388296895  0.3781801729194073   T   T   T
  0.7675420062403532  0.6213102653942901  0.6266657022392912   T   T   T
 -0.0093666635871087  0.3915226375759248  0.6356171419558703   T   T   T
  1.0062366404623413  0.6090420744051419  0.3660252458462937   T   T   T
  0.2675174956789731  0.4505607760511246  0.1230057242422612   T   T   T
  0.7378848815807674  0.5384749730038724  0.8754533866852248   T   T   T
 -0.0079398906373347  0.1852862854086186  0.1203727094958887   T   T   T
  0.9749781946329599  0.8017506766428992  0.9013587156276188   T   T   T
  0.2512731905378107  0.5461007577481222  0.8847276120222598   T   T   T
  0.7641074120025987  0.4524788902054369  0.1176980890672646   T   T   T
