Sr Co O 
 1.0000000000000000
    -4.7870938942549097    2.7901189497924075    0.7153092171473634
    -4.7529513263645047   -8.3252251601343019    0.7812247747462192
     3.2143761146692658    2.7374658201504931    8.5967701923296573
 Sr  Co  O  
   8   8  20
Selective dynamics
Direct
  0.0029993009651555  0.3147369983459479  0.8426399632249789   T   T   T
  1.0125778189394110  0.7328315499167092  0.1651147148799861   T   T   T
 -0.0023925820621170  0.1383517758922550  0.4037785490777397   T   T   T
  1.0126883181668083  0.8731175105715162  0.5940884378695224   T   T   T
  0.5483235602109586  0.7662288765282721  0.8620277743273661   T   T   T
  0.4810596510348687  0.2236539838898631  0.1635123925232386   T   T   T
  0.5092348962603002  0.6570295966599127  0.4063685497392421   T   T   T
  0.5043061487624576  0.3730358176706458  0.5869411131163176   T   T   T
  0.0390278192194088  0.0076357698202739  0.0234748748911098   T   T   T
  0.4969663072181101  0.0181688323600260  0.5164141373154502   T   T   T
  0.5210705144466485  0.9168816438050971  0.2392011812910467   T   T   T
  0.4495033180000452  0.0951195627381484  0.7802535673368811   T   T   T
  0.4906982404500368  0.5132052846441435  0.0232268203539461   T   T   T
 -0.0027053392274712  0.5074067631240451  0.4887225802253062   T   T   T
 -0.0267429905588770  0.4198104802590124  0.2150796839850780   T   T   T
  1.0586199079528293  0.5877085535202388  0.7575143319343736   T   T   T
  0.2928872290687318  0.8875982731969265  0.3709931580216321   T   T   T
  0.6918298503721441  0.1545115317740329  0.6752462365747571   T   T   T
  0.7472145667538496  0.9108978897451486  0.3937072085529879   T   T   T
  0.2349918545130992  0.1257216607760675  0.6235121680599778   T   T   T
  0.5022552204523900  0.8968029760315371  0.6438829130920450   T   T   T
  0.4973192368310019  0.1207304903589423  0.3750052150559836   T   T   T
  0.7657858881582827  0.9777461357019467  0.1079628134292031   T   T   T
  0.5528525100847747  0.7049529339649614  0.1479951752957878   T   T   T
  0.2113959344534066  0.1005261633025169  0.9182724960310996   T   T   T
  0.2805767973718810  0.9134320331868971  0.0882142341370732   T   T   T
  0.7443842993712592  0.4029843123417532  0.3570297190271578   T   T   T
  0.2585738493168127  0.6146759987425645  0.6154184540409138   T   T   T
  0.1931652787299841  0.3694380955559182  0.3485698755245606   T   T   T
  0.8105070662902570  0.6451476877856411  0.6383710277268057   T   T   T
 -0.0167186810311794  0.3846231184926489  0.6051671793104826   T   T   T
  1.0011471497272935  0.6297489548261050  0.3709805917030120   T   T   T
  0.2175178351679863  0.4382139608762620  0.0955099969258506   T   T   T
  0.8681699672523823  0.5988590531312858  0.9033768368730308   T   T   T
  0.3428778226952641  0.5187173457734645  0.8453900160756204   T   T   T
  0.7270312800229010  0.3867483864020655  0.0630357749558830   T   T   T
