Sr Co O 
 1.0000000000000000
     0.0060976388717558    5.5096543326753409   -0.0021880235687165
    -9.4186981359034903   -0.0174989497391560    1.4668803244744673
    -1.5987436123677434    0.0173819108145262    9.4024470142136529
 Sr  Co  O  
   8   8  21
Selective dynamics
Direct
  0.0055009803589782  0.7365852900095904  0.8406624403741599   T   T   T
 -0.0057587459979890  0.2788650780307154  0.1522309952385785   T   T   T
  0.0150351696418507  0.8661389834138511  0.3942979875311841   T   T   T
  0.0146711359447980  0.1341261136395094  0.6017039704677567   T   T   T
  0.4995194714088655  0.2068648466990287  0.8413077305495663   T   T   T
  0.4932246753025578  0.7784680596762603  0.1412828862742440   T   T   T
  0.5131117781243155  0.3684510673631562  0.4059336441041219   T   T   T
  0.5060057728424735  0.6394290249507798  0.6039435358842028   T   T   T
  0.0118407745227302 -0.0017003720268399 -0.0129566411831434   T   T   T
  0.0105618231157051  0.5003078363960973  0.5085183900864665   T   T   T
 -0.0259214769997574  0.5871941171760844  0.2385254569962413   T   T   T
  0.0148565909178739  0.4081094557463347  0.7819913723013445   T   T   T
  0.4834361613604418  0.4959219771682637  0.0016647970527158   T   T   T
  0.5160938295827534  0.0057469993474051  0.4879772289948701   T   T   T
  0.4798791826044215  0.0970424509287353  0.2204672968881156   T   T   T
  0.5102179708488909  0.9110939332499947  0.7606161302900603   T   T   T
  0.0049600984577441  0.3931566756724867  0.3695260765577256   T   T   T
  0.0137312290197332  0.6053238115413814  0.6462481151999461   T   T   T
  0.2326193269376741  0.6219575874282239  0.3677989605891704   T   T   T
  0.7833531939023752  0.3783592797705110  0.6420346234339354   T   T   T
  0.2561931751641373  0.3807655260686160  0.6278941536220596   T   T   T
  0.7635571993712555  0.6212373043602493  0.3951068104232224   T   T   T
  0.0206804208250000  0.7645009483259704  0.1024102422540475   T   T   T
 -0.0344026883170982  0.2186198469053717  0.9058975207158450   T   T   T
  0.1766781664491303  0.4748805872120235  0.9272033927658495   T   T   T
  0.6923271565857554  0.5201665462411759  0.1439894949230445   T   T   T
  0.5192903504275380  0.8996699666848622  0.3479240986490902   T   T   T
  0.5280239763761800  0.1100439527581724  0.6238794243882897   T   T   T
  0.7343566472463045  0.1280832254578980  0.3502245222394082   T   T   T
  0.2943932017078502  0.8783939083482523  0.6155200730979364   T   T   T
  0.7516317484789076  0.8861473067773907  0.6196504503313289   T   T   T
  0.2670467319753710  0.1273595178520914  0.3793086883230654   T   T   T
  0.5156561444192110  0.2846531457393903  0.0776923065881749   T   T   T
  0.5191773136666591  0.6893880040205281  0.8755709102545799   T   T   T
  0.2361019421084707  0.9716906605826546  0.8468110109481618   T   T   T
  0.7198315855985120  0.9593335947537245  0.9100506087191753   T   T   T
  0.2095174728823497  0.0256234804067841  0.1330908886298955   T   T   T
