Sr Co O 
 1.0000000000000000
     4.8189942555434948   -2.7229231678257482   -0.7230554264078819
    -4.8425685722556029   -2.7648434930750452    0.7227413465969702
     2.9811568377110471   -0.0357069829161490  -19.1542971925507111
 Sr  Co  O  
   8   8  21
Selective dynamics
Direct
  0.2721124032139738  0.7380452390282847  0.5935454782007178   T   T   T
  0.6976337004979817  0.3110460366199653  0.9372717430279829   T   T   T
  0.1089777598771514  0.8962430213877420  0.8196378562727663   T   T   T
  0.8449061541180680  0.1482328464549791  0.7104678030431442   T   T   T
  0.2699027373777272  0.7168493775512440  0.0572370662612576   T   T   T
  0.7830088777684389  0.3170207641812794  0.4203618875536879   T   T   T
  0.1295507281714749  0.8338196670411829  0.2818585682552890   T   T   T
  0.8527729611358899  0.1079505563440300  0.1668973774650767   T   T   T
 -0.0129507000841160  0.0119340487106509 -0.0041015176901045   T   T   T
  0.4817680968970488  0.4868363331703304  0.7483568337258801   T   T   T
  0.4048412479188655  0.6067409607238773  0.8815198370177900   T   T   T
  0.5803594831300272  0.3582035251483588  0.6150485869835578   T   T   T
  0.0538830336341160  0.1164383387124918  0.5017298425167497   T   T   T
  0.4673234341616552  0.4662235717066985  0.2515677565109788   T   T   T
  0.4885959988428838  0.6072648698058076  0.3936474229510031   T   T   T
  0.5578247883121343  0.4119518205786891  0.1162227193810184   T   T   T
  0.6125461198723934  0.4235560712998607  0.8185290448305419   T   T   T
  0.3722367574048324  0.5460829033035440  0.6717124481309035   T   T   T
  0.1396251572334448  0.3820489588995607  0.8144614156950645   T   T   T
  0.8298003251276874  0.6014875934327502  0.6834186971167089   T   T   T
  0.3583991000988261  0.1191174229152949  0.6995222080111368   T   T   T
  0.5798975087762208  0.8414139226776672  0.8067074234218853   T   T   T
  0.1882195619369977  0.7824819505921220  0.9329798243269191   T   T   T
  0.7862157850953374  0.1532649493697184  0.5810910355600458   T   T   T
  0.2451854200111485  0.3384335627832768  0.9420951903034785   T   T   T
  0.3806007543851946  0.1790288453979549  0.5339312881133219   T   T   T
  0.7192142241428580  0.8606508250968731  0.9335417780801876   T   T   T
  0.3380442142793531  0.5692890521372549  0.1882084531500988   T   T   T
  0.2487242102626714  0.5598667367117010  0.3317684250384998   T   T   T
  0.8148815795697074  0.6277730968463922  0.1879420962740666   T   T   T
  0.3839659917805424  0.1366751205042891  0.1827213044433111   T   T   T
  0.5983326280874766  0.3586102574853455  0.3152488908709027   T   T   T
  0.7848799945328785  0.2581795572888005  0.0618599799328899   T   T   T
  0.2043098665356800  0.4824359277717735  0.4715045355383429   T   T   T
  0.7176777922634044  0.7048792603010638  0.0612244365233591   T   T   T
  0.2502927822495223  0.1713042064164377  0.0620212288507000   T   T   T
  0.8514392900145428  0.8776186395142173  0.4192412127652690   T   T   T
