Sr Co O 
 1.0000000000000000
     4.6927068163009391   -2.7730660585017142   -0.8008776077445727
     4.7283074849398075    8.4154270641170665   -0.5390883972372554
    -1.5935598905161608    0.2361432733665464    9.5175250470720947
 Sr  Co  O  
   8   8  21
Selective dynamics
Direct
  0.4325379330148760  0.1580087559602300  0.8504215220248514   T   T   T
  0.0534173847282975  0.3442840617085888  0.1028901784803500   T   T   T
  0.1891484740556428  0.0762153804408917  0.3889365095090995   T   T   T
  0.3041104346058930  0.4236893537390150  0.6083815281943356   T   T   T
  0.9323931903016709  0.6229556925031239  0.8569835718284053   T   T   T
  0.5875741277757605  0.8477259560565896  0.1277101910660449   T   T   T
  0.6744579958914432  0.5299097853816929  0.3413306037748642   T   T   T
  0.8206849626626951  0.9636638246241458  0.6468433288539973   T   T   T
 -0.0001474720560223 -0.0109423767808227 -0.0003434611708502   T   T   T
  0.7482167822619240  0.2468871380184317  0.4841986849738534   T   T   T
  0.6358472555442050  0.1959306013036155  0.2225268942321991   T   T   T
  0.8759948922557901  0.2950674119136958  0.7515659961928799   T   T   T
  0.4958576780778123  0.4941412203351526 -0.0176791636650173   T   T   T
  0.1710611381563524  0.7528518928214030  0.5040157668419708   T   T   T
  0.1096397271292140  0.6948817677472808  0.2178617195793428   T   T   T
  0.3773009922272891  0.8049189688192009  0.7802663396437117   T   T   T
  0.9404109883385916  0.3097161578579254  0.3695056714601913   T   T   T
  0.5790170576465938  0.1939486245525774  0.6153889168997987   T   T   T
  0.4455592233638732  0.2880704892872993  0.3409493673420657   T   T   T
  0.0446926143112944  0.1953924379593066  0.6242307874131529   T   T   T
  0.7992133953392343  0.4219971444025152  0.6024025197993302   T   T   T
  0.6890991296225820  0.0682622422931247  0.3664482297486731   T   T   T
  0.1748623830500119  0.3998655202085711  0.8612372723982721   T   T   T
  0.5315971448476184  0.3210156063935872  0.0913128575112378   T   T   T
  0.9410444226822691  0.1499503712068978  0.8792507396353177   T   T   T
  0.6735795650492401  0.3901075391647368  0.8499661058012585   T   T   T
  0.8347234949329834  0.0894783174630581  0.1216004454474628   T   T   T
  0.3501042540381470  0.9143353911841768  0.6132999027340069   T   T   T
  0.0385608288416810  0.7303509567365597  0.6568040296773219   T   T   T
  0.9001522215300085  0.7740054789403296  0.3433798535346189   T   T   T
  0.2852135933683581  0.6075366759115873  0.4069931760770221   T   T   T
  0.8244985080377493  0.5730404485791833  0.1072622449904966   T   T   T
  0.7220743706799125  0.8647375976728986  0.8700481176426823   T   T   T
  0.1479156703790391  0.8748649205330923  0.1643623923774741   T   T   T
  0.4425210544869816  0.6335242713103162  0.8399221275916883   T   T   T
  0.2487702616121079  0.9354231389472785  0.9115649160213188   T   T   T
  0.3317935792395191  0.6086870853153404  0.1195603773597435   T   T   T
