Sr Co O 
 1.0000000000000000
     0.0081752314389842    5.5818240367777179   -0.0303254770982965
     9.4294219170640616    0.0156054211567974   -1.4805459156799916
    -3.1734650210636888   -2.7544958091192600   -8.7761931788774614
 Sr  Co  O  
   8   8  20
Selective dynamics
Direct
  0.5888617899293827  0.8670139710003155  0.1554982884277186   T   T   T
  0.9030728137006000  0.6618342364183596  0.8612286092713921   T   T   T
  0.7779917814768620  0.9076353491375062  0.5887233303169450   T   T   T
  0.7019134020153595  0.5463815779887429  0.3857718090058166   T   T   T
  0.0942598134544534  0.3358823977932539  0.1672153125238230   T   T   T
  0.4481921319573050  0.1361684940553574  0.9132546318032615   T   T   T
  0.2923625919914261  0.4309638282076898  0.5953122503366003   T   T   T
  0.1970031918947199  0.0505558980701536  0.3530099549641001   T   T   T
  0.0032399398418380 -0.0007413132247613 -0.0012262799731888   T   T   T
  0.7543988281749526  0.2358502300941726  0.5213891674966741   T   T   T
  0.7948030104026209  0.2944128236026102  0.7929454136700502   T   T   T
  0.6416026172064583  0.2028210388183406  0.2572082427358088   T   T   T
  0.5149420527847430  0.4958976764730180  0.0318701191597595   T   T   T
  0.2445304532956681  0.7250686534972235  0.4825444208220495   T   T   T
  0.3481451442565619  0.7992093582845801  0.7508789452245894   T   T   T
  0.1052920146662818  0.6943040827285987  0.2117691130994486   T   T   T
  0.8745503852439971  0.4030534771792164  0.6684064620311017   T   T   T
  0.6947404858111651  0.0639653324704896  0.3867065909346312   T   T   T
  0.4658865334922640  0.3125702322532561  0.3857056294190593   T   T   T
  0.9443667730981937  0.2907763409109143  0.4031154784328458   T   T   T
  0.5761245007788179  0.1566170175938244  0.6323580339738787   T   T   T
  0.9741986946945902  0.1863783516137471  0.9108200259426362   T   T   T
  0.6093768295810326  0.3534463062229883  0.1451435020917124   T   T   T
  0.3419412097963835  0.1031907348381616  0.1368071917541383   T   T   T
  0.8320212669051615  0.0940386971611449  0.1406829386156196   T   T   T
  0.5313604258736326  0.3992519585374738  0.8480803053223051   T   T   T
  0.1344960348052276  0.5588342120411584  0.3417368705397388   T   T   T
  0.5280364757274886  0.6897627670056730  0.6305256027253475   T   T   T
  0.9823439476501502  0.8106458010778970  0.3657195441764256   T   T   T
  0.4294324443644081  0.7697190313767206  0.3583046933774760   T   T   T
  0.0727778651367937  0.6894797931760208  0.6168304494812190   T   T   T
  0.6310596921299226  0.8868823577331124  0.8747119681663806   T   T   T
  0.1072524618340663  0.8413445239680458  0.1040800695505663   T   T   T
  0.7692309379214961  0.6339499086119512  0.0891846564464314   T   T   T
  0.2244295789893825  0.5603664059567637  0.0651078737127550   T   T   T
  0.1331120129687382  0.9108183078382984  0.8272787022502435   T   T   T
