Sr Co O 
 1.0000000000000000
     0.0163589003565492    5.5152409882735824   -0.0141122756501710
     9.5591681047652415    0.0166429908380581   -1.5325372534873758
    -3.1903431670976188   -2.7399202818853170   -8.7546758306006502
 Sr  Co  O  
   8   8  20
Selective dynamics
Direct
  0.5349016696197925  0.8694362095677062  0.1425358741275111   T   T   T
  0.9127595181333532  0.6591929402060192  0.8376030029001472   T   T   T
  0.8182457427992914  0.9615881474296388  0.6215278511644973   T   T   T
  0.6891861079940450  0.5554905724961936  0.4165690238060638   T   T   T
  0.0973594008401222  0.3524712172949741  0.1622331646324499   T   T   T
  0.4297335218265423  0.1390908060063777  0.8475124889153679   T   T   T
  0.3111642405142762  0.4182475003593783  0.6119121659733110   T   T   T
  0.2223887307758589  0.0749962626278204  0.4024633063712827   T   T   T
  0.0056284293986279  0.0133164529864411  0.0111912196967183   T   T   T
  0.7779072340024851  0.2472328510157439  0.5088237556175389   T   T   T
  0.9350566756194019  0.3018461332228504  0.7782477885227251   T   T   T
  0.6205949459112232  0.1890915565389020  0.2440568104339344   T   T   T
  0.5034261667370197  0.5280697236027517 -0.0026352430824913   T   T   T
  0.2304287051261519  0.7506604264510146  0.4898870923627177   T   T   T
  0.3421991364979972  0.7938580269085495  0.7568698327156321   T   T   T
  0.1048168780592696  0.6834297748331094  0.1931451855246858   T   T   T
  0.8615366612475793  0.4280766677779843  0.6439108840553274   T   T   T
  0.7146874271724172  0.0590061889019799  0.3925214493350024   T   T   T
  0.0781617798249358  0.1859805985092202  0.6237404849628022   T   T   T
  0.4771097721471026  0.3096526736609907  0.3848653784746418   T   T   T
  0.9227149797559728  0.2940614328640381  0.3608107355171870   T   T   T
  0.6161981138027283  0.2110725944661470  0.6500860542338250   T   T   T
  0.9392784110464489  0.1861585900958964  0.9063500893001628   T   T   T
  0.2838458025267806  0.3855874104149557  0.8762878444153646   T   T   T
  0.2998529242471081  0.1055208580620769  0.1580011860410979   T   T   T
  0.7381871333422095  0.0863242455456577  0.0901837120804534   T   T   T
  0.3556591039084391  0.9242686517036380  0.6327866031756511   T   T   T
  0.0903647143571526  0.5914638406997639  0.3467782420623439   T   T   T
  0.5096344864032143  0.6691540924304783  0.6391271839682340   T   T   T
  0.3486381200401285  0.8113679580294790  0.3501097644678255   T   T   T
  0.0104764476733821  0.7216381809627731  0.5993557729278346   T   T   T
  0.4121179315508742  0.6868613102593178  0.9015223253140681   T   T   T
 -0.0020658927215806  0.8266200253143492  0.0907343338223539   T   T   T
  0.8537119333481092  0.5421562429279532  0.0438945190440932   T   T   T
  0.4005637517661778  0.5695284175693832  0.1644091263829505   T   T   T
  0.1491792519721089  0.9221313036638955  0.8618810501568827   T   T   T
