Sr Co O 
 1.0000000000000000
    -4.8991559870469050    2.7151247139552557    0.6519683543375914
    -4.9209114402855469   -8.2001315571481666    0.5732762006152602
     3.5847024032752772    2.8211246132563175    8.7673224588810239
 Sr  Co  O  
   8   8  21
Selective dynamics
Direct
  0.0099908356732645  0.2855879342839366  0.8836549158019739   T   T   T
  0.9796338138526559  0.6928726296592224  0.1393534352692134   T   T   T
 -0.0148836973546717  0.1362518617879607  0.3534258709809324   T   T   T
  1.0103233284783779  0.8827775393473095  0.6171759952869024   T   T   T
  0.5269120284155295  0.7913751927003444  0.8493671548342137   T   T   T
  0.5063923139058550  0.2221456039671323  0.1185842704597921   T   T   T
  0.4821266532101404  0.6052892170060516  0.3766971146865433   T   T   T
  0.5084461182038243  0.3806469697965784  0.6431907157314571   T   T   T
  0.0237881059161785  0.0075297305016782 -0.0030190609869496   T   T   T
  0.4605043881818841  0.0043148147189279  0.4910208634170665   T   T   T
  0.4478402485334301  0.8960293668829662  0.1975158760125182   T   T   T
  0.4997021043180632  0.0806561354149757  0.7627939919916378   T   T   T
  0.5047458128820792  0.4939132751924993  0.0005809108103630   T   T   T
  0.0029965354412028  0.5121629856788370  0.5081126644413895   T   T   T
 -0.0089606819907602  0.4138818549941920  0.2413737996112563   T   T   T
  1.0185279860739165  0.6025188525242289  0.7930908108429708   T   T   T
  0.2382707135161150  0.9000522333947796  0.3445676309027027   T   T   T
  0.7282252306740807  0.1092183908827292  0.5360101540419147   T   T   T
  0.2586571723702841  0.1421953114532029  0.6342711618403207   T   T   T
  0.4940816984112524  0.8783517833227927  0.6039607689571356   T   T   T
  0.7209928069352166  0.9458505020080665  0.1488058909222567   T   T   T
  0.2658983174214455  0.0366110305252405  0.8713521011945701   T   T   T
  0.4937867090168376  0.6982552771410027  0.1485180715395432   T   T   T
  0.5582878555258366  0.2801663990735632  0.8735062550556053   T   T   T
  0.7778998805725187  0.0048917935676201  0.8427189401382457   T   T   T
  0.2642322941955663  1.0322145581743181  0.1561985079969904   T   T   T
  0.7692263351775388  0.3845070797290280  0.3741515723399252   T   T   T
  0.2342313132734633  0.6135567176807526  0.6545319342866980   T   T   T
  0.2234679596335747  0.3781798503617282  0.3845569336654534   T   T   T
  0.7861651120592158  0.6120424983463307  0.6459573576700747   T   T   T
  1.0006919832447696  0.6291191744851294  0.3805575783204232   T   T   T
  0.2268119723818117  0.4439911636533980  0.1306297600355088   T   T   T
  0.7753174267534957  0.5411651987442376  0.8767756847001040   T   T   T
 -0.0517313278855522  0.2066751468716185  0.1080213592140273   T   T   T
  1.0658381735402382  0.8013975170401750  0.9308747551843373   T   T   T
  0.2560264015006575  0.5024719526265403  0.8655536339061412   T   T   T
  0.7331861452680252  0.4687823360247273  0.1388604066200708   T   T   T
