Sr Co O 
 1.0000000000000000
    -4.7857428210336836    2.8208100810661141    0.7232979678148211
    -4.6906504727375955   -8.3196397062881768    0.6162323433534267
     3.2541942263761365    2.8441607281383599    8.6520453435930538
 Sr  Co  O  
   8   8  20
Selective dynamics
Direct
  0.0054224029854910  0.3285875481365767  0.8523325138026407   T   T   T
  1.0266611931479910  0.7332507966542866  0.1291381905709733   T   T   T
  0.0089808934465098  0.1218930516628735  0.4295889703022772   T   T   T
  1.0071924615827939  0.8836158664841534  0.6297873984566758   T   T   T
  0.5085010424997085  0.7742774949232564  0.8548838924844585   T   T   T
  0.5168842319594171  0.2012315088166602  0.1767411543444971   T   T   T
  0.4925937549991907  0.6450523081223367  0.3917555101868754   T   T   T
  0.4904367375706982  0.3920440191335704  0.6153287394957133   T   T   T
  0.0308029690556201 -0.0071630770809133  0.0311847232484074   T   T   T
  0.5076924787426740  0.0176570865721294  0.5348439889441875   T   T   T
  0.5364663904266422  0.9135245178458337  0.2594666685954178   T   T   T
  0.5108867928997028  0.1340757305607863  0.8013613480704466   T   T   T
  0.4926412085650380  0.5215317063648098  0.0018300937775307   T   T   T
 -0.0048531514858630  0.4946409878491680  0.4788965667738487   T   T   T
  0.0511333658146981  0.3758042220052855  0.1948625963776955   T   T   T
  0.9912768347406405  0.6025268300932688  0.7513721090790795   T   T   T
  0.2817770679049961  0.8839250686821098  0.3878853308733045   T   T   T
  0.7577836929745696  0.1355979910215450  0.6621094478185786   T   T   T
  0.7378158576563668  0.8877538315344692  0.4141807846032868   T   T   T
  0.2775337958745275  0.1558476188748749  0.6571694811630331   T   T   T
  0.4822380634867602  0.9288232275013817  0.6920162320811623   T   T   T
  0.5199148097773267  0.1189600279953025  0.3991511495670005   T   T   T
  0.8048837478621992  0.9860560650105699  0.1687057002465048   T   T   T
  0.5811398943299050  0.7020446051259004  0.1514086014220268   T   T   T
  0.3228928565645276  0.9396593034142345  0.1041984814177233   T   T   T
  0.2190411346129516  0.6314152449728129  0.6122437445978116   T   T   T
  0.2403616178302628  0.3754579890838429  0.3651988638656968   T   T   T
  0.7651583439303177  0.6238102300089795  0.6019808490752642   T   T   T
 -0.0146798735950166  0.3954363978703473  0.6171550616097495   T   T   T
  0.7815767659373567  0.4228431116092191  0.3136829272537069   T   T   T
  0.2121559060999265  0.5033212334418592  0.1293557851096682   T   T   T
  0.7481479728095578  0.5507411047002793  0.8690647820435008   T   T   T
  0.0760907022234991  0.1866323865604598  0.0372187327362865   T   T   T
  0.9759984431509977  0.8229354442148739  0.8633242398497339   T   T   T
  0.2493585774276769  0.5630428831564801  0.8690242536033224   T   T   T
  0.5670910397251538  0.3081456927867218 -0.0424491667307011   T   T   T
