Sr Co O 
 1.0000000000000000
    -4.7333066184238248    2.7803183185579350    0.7723204109835078
    -4.6923693419102595   -8.2668819965921365    0.7007227434010334
     3.1309808326044388    2.7953137886200410    8.8869818980231354
 Sr  Co  O  
   8   8  21
Selective dynamics
Direct
 -0.0059112776532914  0.2859692144754566  0.8444604683786590   T   T   T
  1.0132736084019163  0.6761310903460021  0.1203065226427723   T   T   T
  0.0166630900016067  0.1471115054247558  0.4094827947730855   T   T   T
  0.9912384894230207  0.8844082523650336  0.6345115805834259   T   T   T
  0.4947155094837528  0.7882077842293911  0.8446461581580442   T   T   T
  0.5116844928419892  0.2047163509883075  0.1011110573648723   T   T   T
  0.4711945471198794  0.6341018533850382  0.3969225364211070   T   T   T
  0.4801347327983367  0.3945922742733894  0.6564235004731857   T   T   T
  0.0215754804840662  0.0020792260198529 -0.0104407396525733   T   T   T
  0.4902526196803906  0.0064516796010804  0.4916325077435860   T   T   T
  0.4607803127013780  0.8995957476101540  0.2204403791552168   T   T   T
  0.4982176394702576  0.0906154396437196  0.7555098917428706   T   T   T
  0.5188111189785800  0.4999394351362365  0.0097799220388708   T   T   T
 -0.0046514825590780  0.5129569053679297  0.5091582684257173   T   T   T
  0.0228232821396892  0.3950293440233238  0.2244023494538382   T   T   T
  0.9811415012695018  0.5976032011826443  0.7756702084274676   T   T   T
  0.2387658250685683  0.8882580085699413  0.3700952115766998   T   T   T
  0.7371810542644556  0.1145555062265031  0.6185648418529512   T   T   T
  0.2729373079576639  0.1340777041744228  0.6216588952171761   T   T   T
  0.4947825827485199  0.8899277317749694  0.6110071723400806   T   T   T
  0.5757788555036160  0.0846387731148717  0.3472721871991364   T   T   T
  0.2330437456989127  0.0456230236889897  0.8528605424003781   T   T   T
  0.5720660417734711  0.7118606608104565  0.1623977889150170   T   T   T
  0.4868706732509258  0.2910744494811242  0.8691762647210028   T   T   T
  0.7337312474929306  0.0406600539184439  0.8764529629918298   T   T   T
  0.3202412990088008  0.9519706462035639  0.0805316206806533   T   T   T
  0.2136060190647954  0.6424541286349631  0.6476597246701915   T   T   T
  0.2135774326024189  0.3822271769101810  0.3825546140481125   T   T   T
  0.7522454148757776  0.6250754710890208  0.6311190188414523   T   T   T
 -0.0146006351576980  0.3974944604180527  0.6312600366105551   T   T   T
  0.9433000326597496  0.5929474640960950  0.3644253685609897   T   T   T
  0.3121454705205773  0.4649229776101115  0.1459470491719802   T   T   T
  0.7248884089167833  0.5444594275463076  0.8771679776120546   T   T   T
 -0.0148684570234254  0.1790476636810158  0.1509915900185477   T   T   T
  0.9492290673689858  0.8011852610894434  0.9117510137009069   T   T   T
  0.2264194061040602  0.5513316939327513  0.8867464380314811   T   T   T
  0.8123655551580011  0.4183483724742635  0.0936418234689538   T   T   T
