Sr Co O 
 1.0000000000000000
    -4.7838077507850540    2.8161748842930541    0.6886322717982882
    -4.6553078583161973   -8.2250787745810676    0.5775532682637530
     3.3031768524777623    2.8062831812703841    8.8696548289406287
 Sr  Co  O  
   8   8  20
Selective dynamics
Direct
  0.0034037684017561  0.2880519659535896  0.8539538491965286   T   T   T
  1.0512897915984700  0.6927515961731242  0.1236424499429783   T   T   T
  0.0073450245071578  0.1660689181413564  0.3851000664960939   T   T   T
  0.9979365099679683  0.8765488554870431  0.6537069359164960   T   T   T
  0.5065455161484217  0.7746565074604450  0.8594840663811280   T   T   T
  0.5068803221667649  0.2166219431383094  0.1369572507586252   T   T   T
  0.5096787751231634  0.6047578552716253  0.3773981169528516   T   T   T
  0.4934089296345312  0.3962733114473661  0.6096193552826957   T   T   T
  0.0189417316878967 -0.0058931166567707  0.0125517466637581   T   T   T
  0.4878133780062820  0.0261848498666530  0.5033703235804478   T   T   T
  0.5335210316396780  0.9349704133904870  0.2351473482693928   T   T   T
  0.4961089459573721  0.0826377935246946  0.7752482680453414   T   T   T
  0.5156573879676967  0.4887710162978504 -0.0112673984401616   T   T   T
 -0.0000767376470791  0.5169756969415437  0.4951648148572613   T   T   T
  0.0142179468707488  0.4123270769766589  0.2262814756898969   T   T   T
  0.9940060356894149  0.5906797944814058  0.7628372995191779   T   T   T
  0.7357516694017896  0.0909726255624197  0.6476120452907735   T   T   T
  0.3947271386160631  0.8430504857182511  0.3561742773930290   T   T   T
  0.2771947863019570  0.1309365404111092  0.6490828975286790   T   T   T
  0.5116263207994682  0.1392506411797966  0.3783212993500765   T   T   T
  0.8354511994214407  0.9317032205421591  0.1811396434716577   T   T   T
  0.2431965870900465  0.0495759918774391  0.8687310114996624   T   T   T
  0.7142349903268097  0.0438811349494460  0.8935391308330034   T   T   T
  0.3203223350679648  0.9173172418661280  0.0907261586488066   T   T   T
  0.7805800925608263  0.3856724013557599  0.3539554420345871   T   T   T
  0.2304927098666021  0.6418408238675248  0.6388982311769504   T   T   T
  0.2347204213035071  0.3986907350184061  0.3763216267556543   T   T   T
  0.7602824425522107  0.6326302976075414  0.6207119563847635   T   T   T
 -0.0023484235294861  0.3967469649009637  0.6159802052396905   T   T   T
  0.9943246868050323  0.6237573549137495  0.3616317451750160   T   T   T
  0.3006644728982513  0.4549294930056809  0.1180752006427321   T   T   T
  0.7236376271220839  0.5223645633423893  0.8587085230130082   T   T   T
  0.0361315640790345  0.1928587366623257  0.1361265520594856   T   T   T
  0.9682637515250914  0.7944501588616449  0.8866942760399149   T   T   T
  0.2579038330308888  0.5390063356205521  0.8882725182190109   T   T   T
  0.7720131017022367  0.4348297147857099  0.0828010209370826   T   T   T
