Sr Co O 
 1.0000000000000000
     0.0171540359015632    5.5170793546878176    0.0442523963337742
    -9.5218545596137183   -0.0239512773268613    1.6026217308935411
    -1.6643461669925768    0.0703137723975750    9.5287057029759872
 Sr  Co  O  
   8   8  20
Selective dynamics
Direct
  0.0126169398231469  0.7405145975458135  0.8560504002809409   T   T   T
  0.0156716412962780  0.2866231129839864  0.1548118155973029   T   T   T
  0.0144056655408986  0.8955014572532888  0.3849945448468495   T   T   T
  0.0190582546431225  0.1034252577651112  0.6242508388838098   T   T   T
  0.4890207059914337  0.2074384826115789  0.8683716876104092   T   T   T
  0.4953459622294713  0.8362941065744952  0.1190338864354664   T   T   T
  0.4975363351546286  0.3407088119197550  0.4007413491763276   T   T   T
  0.5196775397769909  0.6595660018388375  0.6094422765845692   T   T   T
  0.0030845071234863 -0.0019228417770942  0.0146501713699556   T   T   T
 -0.0040535266506657  0.4932141184390940  0.4981795237569853   T   T   T
 -0.0770288701116072  0.5982340373137937  0.2289573182599206   T   T   T
  0.0259097880089463  0.4481611693357682  0.7679801279079091   T   T   T
  0.5331550334374858  0.5012279341053740 -0.0131711818609063   T   T   T
  0.5191136382542260  0.0012926427617684  0.5020880043327353   T   T   T
  0.5122209380465387  0.1061412050449063  0.2319692245917842   T   T   T
  0.5101499542016411  0.9144911049430013  0.7724807846605072   T   T   T
  0.0403489049323987  0.6284879640554274  0.5916545489356475   T   T   T
  0.0551925263637662  0.4122422549358588  0.3539656251656363   T   T   T
  0.1773058810321551  0.3535947034160355  0.6398496746868183   T   T   T
  0.7118140817140440  0.5780248114483570  0.4017619060521472   T   T   T
  0.0302993358006386  0.7889511123506942  0.1685792559375400   T   T   T
  0.7084751706685528  0.4499540936926569  0.8194177638777720   T   T   T
  0.2310068396468450  0.4420896223424782  0.9113022953729810   T   T   T
  0.8271576565845905  0.5484276112381038  0.0729350126626000   T   T   T
  0.5140368018588846  0.8968769649460535  0.3614837948673643   T   T   T
  0.5333049314793576  0.1148499947742285  0.6326205428005957   T   T   T
  0.7493285782123198  0.1235700602282845  0.3716784932355247   T   T   T
  0.2852601356084373  0.8833054355434244  0.6345217883866315   T   T   T
  0.7450880970668151  0.8765579312662762  0.6355276437686971   T   T   T
  0.2812784158934551  0.1186476355851221  0.3801124707020228   T   T   T
  0.5069497935739421  0.3234943875037117  0.1450010364929254   T   T   T
  0.4677084008774622  0.7046826809901570  0.9051211955088901   T   T   T
  0.7590990462356118  0.0879518292248688  0.0924748468642601   T   T   T
  0.2449962814110096  0.9747473655764242  0.8780605731855239   T   T   T
  0.7638107391045285  0.9595634662139891  0.8883116108212782   T   T   T
  0.2546535991335857  0.0770693287057522  0.1054890827047891   T   T   T
