Sr Co O 
 1.0000000000000000
    -4.7332096315523406    2.7304555949322147    0.7711678643659291
    -4.8885879308343823   -8.4436914451713463    0.5049866107554553
     3.3275944836165317    3.0790658829108501    8.8322330871074399
 Sr  Co  O  
   8   8  20
Selective dynamics
Direct
 -0.0097723914719805  0.3096815668167951  0.8474446433709751   T   T   T
  1.0202813157569874  0.7111126467093075  0.1166358262856790   T   T   T
  0.0052536783531540  0.1286827295147551  0.3593622663410373   T   T   T
  1.0014542579251970  0.8455003329618176  0.6424630800034082   T   T   T
  0.5269473917799026  0.7713957273476302  0.8896644178142071   T   T   T
  0.5110939920736577  0.1980690846838381  0.1395959087813957   T   T   T
  0.5124365549042030  0.6384986202345690  0.3862766659935470   T   T   T
  0.5198003446982719  0.4018569481786870  0.6158613293296958   T   T   T
  0.0076368523729339  0.0003845783534026  0.0009988383885291   T   T   T
  0.5670856317196975  0.0324131811034695  0.5214428005277304   T   T   T
  0.5360551370185093  0.9162014449072837  0.2430505499181198   T   T   T
  0.4709326640301248  0.0585514885168623  0.7843988124513256   T   T   T
  0.4965396587635561  0.5042645478304496  0.0018792239770811   T   T   T
 -0.0143998223416377  0.4980139193950185  0.4845888589666362   T   T   T
 -0.0221755103742448  0.4060210312328479  0.2023349669089380   T   T   T
  1.0172713996205236  0.5848272733173584  0.7556656296748148   T   T   T
  0.5585512700933338  0.1952333367751653  0.7011037902910582   T   T   T
  0.7754806718178683  0.9033026045632062  0.3866147119299101   T   T   T
  0.4573611280614494  0.8944709912586513  0.5917617383793443   T   T   T
  0.5047560177207846  0.1294400552186771  0.3978627607782348   T   T   T
  0.7874813111844303  0.9512107466141619  0.1287501927787329   T   T   T
  0.1676417062793379  0.0692726218929370  0.8567097906283394   T   T   T
  0.5002118436746752  0.7075004960393965  0.1642705868117263   T   T   T
  0.6920090819993969  0.0179565707522430  0.8943047142972528   T   T   T
  0.2792928791402404  0.9489091284714969  0.1458701000266543   T   T   T
  0.7453626122937594  0.3898322892427999  0.3522101937680749   T   T   T
  0.2358830404733585  0.6053471357929786  0.6076133838082723   T   T   T
  0.7628636005764645  0.6338283306526903  0.6449968891960899   T   T   T
  0.0000356198600705  0.3753323206610060  0.6004622320904397   T   T   T
  1.0242762260232015  0.6008966841091934  0.3573204623230693   T   T   T
  0.2252656576042388  0.4339000956672765  0.0891686439571096   T   T   T
  0.7790593429102091  0.5519970633235617  0.8864489056515081   T   T   T
  0.0437601296082075  0.2025401212036141  0.1524734605817032   T   T   T
  1.0603515906969754  0.7921818033524283  0.8766729305787978   T   T   T
  0.2833401099763699  0.5258984936572690  0.8598359864120412   T   T   T
  0.7105754238958490  0.3934738397121592  0.0638843112429989   T   T   T
