Sr Co O 
 1.0000000000000000
     4.7336795537868497   -2.8472807283519104   -0.8385179226052577
     4.5577681543588549    8.3004056365381818   -0.7999613273380047
    -1.7272676552440387    0.0402835304094828    9.5895233646757099
 Sr  Co  O  
   8   8  20
Selective dynamics
Direct
  0.4702779168451806  0.1261195279135268  0.8712598467825593   T   T   T
  0.0792650371368753  0.3476554738189004  0.1654767570979184   T   T   T
  0.1832836659080856  0.0611514025005001  0.3929027438941475   T   T   T
  0.2894626809682284  0.4534966737106927  0.5934401389628795   T   T   T
  0.9502014116750053  0.6746025366047652  0.8545659168121971   T   T   T
  0.5579291458032490  0.8605904913191560  0.1286921411031082   T   T   T
  0.6712643487238399  0.5892161250881586  0.3742968529353375   T   T   T
  0.8314599274677029  0.9157372332924147  0.6181917159340027   T   T   T
  0.0175988878582572  0.0036802714361144  0.0120671200613367   T   T   T
  0.7423560082757430  0.2640975835208663  0.5032245859054733   T   T   T
  0.6106793516835758  0.2183748055319142  0.2314738388109819   T   T   T
  0.9286603671741237  0.2714965880737715  0.7721859486625678   T   T   T
  0.4378552858975965  0.5045736431961964 -0.0190221013371014   T   T   T
  0.2538613647120326  0.7569542139637638  0.4969828987090455   T   T   T
  0.1229491401369227  0.7170379079945285  0.2329845125978501   T   T   T
  0.4150204307771265  0.7962028859890329  0.7661812997144571   T   T   T
  0.9202268767155001  0.3052113478460903  0.3803135510418154   T   T   T
  0.4746401933293627  0.3335607497859975  0.3778964658624648   T   T   T
 -0.0019585685712439  0.1655131023674150  0.6001718893135545   T   T   T
  0.5848970546194795  0.2556543686432373  0.6465002097175842   T   T   T
  0.3172703442642347  0.0968941170007750  0.1690688281039543   T   T   T
  0.1402654040699267  0.4345374673756781  0.8171404181394554   T   T   T
  0.5927191416077749  0.3671853840985317  0.0798058775977514   T   T   T
  0.9893130738345691  0.1773083103373423  0.9234074721456432   T   T   T
  0.7918295727759851  0.0961093197463039  0.1422136582184872   T   T   T
  0.4385953922842046  0.8284507028002824  0.3825526419185426   T   T   T
  0.0950858881493577  0.6928044381495432  0.6290755014971449   T   T   T
  0.9507778683829824  0.8165885008671097  0.3660894573468987   T   T   T
  0.5503080895587878  0.6876530403529976  0.6184120962473114   T   T   T
  0.3317350117611849  0.9278466876794216  0.6320341447811171   T   T   T
  0.1555908985041843  0.5818480577899842  0.3578123285393179   T   T   T
  0.7295973969788671  0.9128693872760262  0.8550232528130863   T   T   T
  0.0218576303454720  0.8339060314857228  0.1026347186155968   T   T   T
  0.5258451173040048  0.6481006366711434  0.8966576498989528   T   T   T
  0.2480608861668657  0.9000741911940129  0.8907255989448885   T   T   T
  0.3057176367355886  0.6003968774677187  0.1268597984803393   T   T   T
