Sr Co O 
 1.0000000000000000
     4.9450176547818119   -2.7491213568978123   -0.5889605061321089
    -4.9090632292694441   -2.6906450536926907    0.5723559936331601
     2.3630316404971450   -0.0623276100032640  -18.9555856923654993
 Sr  Co  O  
   8   8  20
Selective dynamics
Direct
  0.3652022390064619  0.7494526981861780  0.5555082573548878   T   T   T
  0.6317562402796296  0.2329679123161858  0.9461229299572120   T   T   T
  0.1029626929770546  0.7924474831250559  0.8093904154882787   T   T   T
  0.9453854795527641  0.1489854845155336  0.6678512842267893   T   T   T
  0.2393858371663967  0.7038026673394309  0.0786806302882054   T   T   T
  0.7781537194575312  0.3526107309411297  0.4394125291744696   T   T   T
  0.1898140480450627  0.9042663780256390  0.3088377458318515   T   T   T
  0.8549483679989115  0.1181304329267089  0.1851774977247579   T   T   T
 -0.0711749180936896 -0.0159768137449264  0.0122645549601016   T   T   T
  0.5197499092554853  0.5034027113028036  0.7479812891020593   T   T   T
  0.2784348768191734  0.4378934256240511  0.8807195638264259   T   T   T
  0.6672093898629191  0.4719317112133122  0.6109577225222178   T   T   T
  0.0940574304262203  0.0609667219460659  0.4932842061016896   T   T   T
  0.5422716148396091  0.5212122708431783  0.2451251985171424   T   T   T
  0.5122744610621808  0.6626405039058496  0.3842763866745059   T   T   T
  0.5427286617688621  0.3869778274308300  0.1148734136600669   T   T   T
  0.5881492997080819  0.4015887549288396  0.8288865925949804   T   T   T
  0.4645433966340647  0.6476463783862640  0.6779367832227032   T   T   T
  0.1470095287071584  0.3446313919181335  0.7858434782000581   T   T   T
  0.8701464325780799  0.6114975740888704  0.6974655653541367   T   T   T
  0.2335987932698211  0.7223124074469002  0.9278629597067950   T   T   T
  0.8578666713063867  0.2893777423805532  0.5652161636891023   T   T   T
  0.0065080654513051  0.0879597398124417  0.9192450402962384   T   T   T
  0.8311884079374419  0.7603828872437323  0.5472394121074357   T   T   T
  0.3329549902307471  0.1912473556165255  0.5714956748313635   T   T   T
  0.6540842496534200  0.4401911696811649  0.3186778369466968   T   T   T
  0.3579751910704641  0.5697540622656226  0.1803031711283986   T   T   T
  0.8464407686952493  0.6389771839328244  0.1711855635829952   T   T   T
  0.4036463871306555  0.1564511185563454  0.1943638131613569   T   T   T
  0.6206337762558692  0.8592414031339913  0.3010766650209346   T   T   T
  0.2826921464866943  0.8099152421609471  0.4272587365106204   T   T   T
  0.7482186038084070  0.1975552301588422  0.0616145418714671   T   T   T
  0.3536472407762700  0.3958968013183830  0.4503465729180411   T   T   T
  0.6631260815829382  0.6269506698681014  0.0370353075991892   T   T   T
  0.2219303816939915  0.1259453114812602  0.0647620865595844   T   T   T
  0.8664796561819140  0.9447657408533829  0.4197205386869506   T   T   T
