Sr Co O 
 1.0000000000000000
     4.7012318156264890   -2.7442997864748042   -0.7740376377775949
     4.7908983280180610    8.3362932490529484   -0.9664069971905942
    -1.7719473779473014   -0.1819896045023467    9.5889888082924113
 Sr  Co  O  
   8   8  20
Selective dynamics
Direct
  0.4328949414117707  0.1629110980434972  0.8300093789330120   T   T   T
  0.0432897201235868  0.3608562716283827  0.0967180034911219   T   T   T
  0.1980484862943401  0.0634920608024280  0.3888227103026881   T   T   T
  0.3203045079077962  0.4389296906198524  0.6333787455853491   T   T   T
  0.9476974078121780  0.6231139496437478  0.8616142227920129   T   T   T
  0.5747872440982770  0.8309077922331610  0.1536233087498040   T   T   T
  0.7251915113182482  0.5615930618305032  0.3807110760661123   T   T   T
  0.8139022239104590  0.9505350259191757  0.5924448479928763   T   T   T
 -0.0140735078182497  0.0141890322260599 -0.0201809225083064   T   T   T
  0.7491021611251593  0.2460382763036477  0.4737982125208702   T   T   T
  0.5581113583500833  0.1966406821782720  0.2082246168029403   T   T   T
  0.8848470428522647  0.2917367017866158  0.7399763071588380   T   T   T
  0.5051810127266948  0.4990645349446981 -0.0062208860369652   T   T   T
  0.2737857319123889  0.7532061639081483  0.5240231384714177   T   T   T
  0.1397024291772725  0.6891118105690391  0.2561239406496012   T   T   T
  0.3773949421376135  0.8244080819877040  0.8154688058908152   T   T   T
  0.8637893475689390  0.2975775102226369  0.3281957690231408   T   T   T
  0.5754252040080267  0.1939019356842297  0.5982041357362849   T   T   T
  0.0600477771290585  0.1871472322165704  0.6063414886528518   T   T   T
  0.8042840928705444  0.4273082646513360  0.6035959536157057   T   T   T
  0.6481397206569617  0.0723125747906430  0.3356798142619725   T   T   T
  0.2170585338379710  0.1255091718283156  0.1529190682727097   T   T   T
  0.1886986167547585  0.4022355399022803  0.8533418212291611   T   T   T
  0.5171863984075014  0.3166206540225316  0.0887929647285858   T   T   T
  0.9458159548587280  0.1376622377245619  0.8495548510889870   T   T   T
  0.6998593565296563  0.3917223219974634  0.8640174254367615   T   T   T
  0.4537563767020183  0.7930762732141192  0.3906509906721560   T   T   T
  0.0908124043965072  0.7225467220454741  0.6538827066766161   T   T   T
  0.9787411159239853  0.8220146409738611  0.3692034633957021   T   T   T
  0.4075715754114009  0.9160244425378734  0.6657620947024684   T   T   T
  0.2280688654270136  0.5652780969855744  0.4162338352656353   T   T   T
  0.8182608543111155  0.5963988973490785  0.1458882807581560   T   T   T
  0.6541078696471749  0.9549588700798116  0.9623926582703286   T   T   T
  0.4955876044606949  0.6557919996727306  0.8692501565449893   T   T   T
  0.1712296429096830  0.8589247894583151  0.9496344027355850   T   T   T
  0.2953913925168433  0.6042533184418672  0.1199224916393773   T   T   T
