Sr Co O 
 1.0000000000000000
     4.7793526315733006   -2.7494119645524142   -0.3909631174794242
    -4.8255811987334516   -2.8033954409076931    0.5731785727122622
     2.0397811428188630    0.6239511709087724  -19.7099429338695202
 Sr  Co  O  
   8   8  21
Selective dynamics
Direct
  0.3535200487470090  0.6787117885280736  0.5492942655846424   T   T   T
  0.5040730178851089  0.2750671666998612  0.9669831468708260   T   T   T
  0.3397867277181593  0.8659968573869185  0.7615120911806726   T   T   T
  0.9996779792691980  0.0819612163826052  0.6558554016875675   T   T   T
  0.1275732251807154  0.7266462546517741  0.1096011401364285   T   T   T
  0.7199669788373534  0.2776133750699366  0.4374706507577303   T   T   T
  0.0759609149861898  0.8753443751635568  0.3276369803764658   T   T   T
  0.7646715266222736  0.1381970262330310  0.2243641293238069   T   T   T
 -0.1983214258262743  0.0076640121887318  0.0395280418142295   T   T   T
  0.6764095646568319  0.5095546199072439  0.7360246823446788   T   T   T
  0.7208950625107300  0.7627642195449630  0.8672961037200206   T   T   T
  0.6789536245391560  0.3877698919768476  0.6065384644901278   T   T   T
  0.0382979565282424 -0.0210548297543920  0.4936326714083681   T   T   T
  0.4237826906225865  0.4905713247297249  0.2563484093526479   T   T   T
  0.3984855396494172  0.5769247639401325  0.3837853966377308   T   T   T
  0.4512895857729063  0.3991474996479590  0.1276220912466292   T   T   T
  0.5779859911618813  0.3897809979727889  0.8261046614014900   T   T   T
  0.4859879436242651  0.5605561942874908  0.6723523251595911   T   T   T
  0.9808744707469191  0.6157689888694687  0.6697846100923193   T   T   T
  0.5525090513129400  0.1542513608002978  0.6789190251480693   T   T   T
  0.8266780755501375  0.8838519292327732  0.7807740282720286   T   T   T
  0.8860318286775274  0.2208836863574762  0.5550480315190381   T   T   T
  0.8089946633904762  0.6708444088635217  0.5518023614553044   T   T   T
  0.3537042071525449  0.1386340330742477  0.5557064659295754   T   T   T
  0.7726486738074106  1.0137784080071532  0.9440840171137981   T   T   T
  0.5964356634321493  0.4170996611740755  0.3190368467215651   T   T   T
  0.2402820381942661  0.5424244580592046  0.1921940984592121   T   T   T
  0.1095875933812652  0.3488153179384864  0.3186548705451142   T   T   T
  0.7317093809756966  0.6457433104680913  0.1939211363720116   T   T   T
  0.3333636057935428  0.1535171533180524  0.1952788125966069   T   T   T
  0.5281624171059767  0.8302648465703676  0.3171584283686800   T   T   T
  0.1820498311608387  0.7344523176766314  0.4346213236722737   T   T   T
  0.7004784936505204  0.2792987801822865  0.0732588814295241   T   T   T
  0.2653773077806229  0.2870850194929400  0.4372354001940288   T   T   T
  0.5506710549312273  0.6583843900770791  0.0605064313666965   T   T   T
  0.1581683788840436  0.1186628190025386  0.0616566975871303   T   T   T
  0.7212760001631671  0.8230222178333547  0.4347578620369694   T   T   T
