Sr Co O 
 1.0000000000000000
     4.7128616070869782   -2.8754147531527190   -0.7641664409444243
     4.5470466316887981    8.3864464778959658   -0.9378807253670455
    -1.7312840052916392   -0.1409607433585643    9.6569093400365844
 Sr  Co  O  
   8   8  20
Selective dynamics
Direct
  0.4171605995388364  0.1610544694651506  0.8269632421695019   T   T   T
  0.0225021172424812  0.3605563636804596  0.0931675098964017   T   T   T
  0.1984527150847874  0.0594854352359183  0.3978768169101602   T   T   T
  0.3474118545684026  0.4396971976895518  0.6268252561884321   T   T   T
  0.9430207201801469  0.6188487651809172  0.8637899819564301   T   T   T
  0.5827461926182950  0.8346674329749991  0.1491049442652096   T   T   T
  0.6544668253267516  0.5733387757055989  0.3701616378132773   T   T   T
  0.7908122858344442  0.9487455672682454  0.5930290954191849   T   T   T
  0.0381121825848950  0.0029287869099092 -0.0311082634088650   T   T   T
  0.7550704187584507  0.2568163924652410  0.4804932507637962   T   T   T
  0.5030566874090162  0.1980600113253103  0.2056193559216564   T   T   T
  0.8789459553994902  0.2863803303274886  0.7427010395345812   T   T   T
  0.4906984450963290  0.4962704639199618 -0.0089433007629340   T   T   T
  0.2589729601865012  0.7534432606569997  0.5191416090727705   T   T   T
  0.1114321809829191  0.6939134383613796  0.2531776722397195   T   T   T
  0.4644747371652206  0.8186174612468368  0.8086150126749428   T   T   T
  0.7091649121560536  0.0903650879532574  0.3247731875735365   T   T   T
  0.5730570253481992  0.1820895376494986  0.6082802768387841   T   T   T
  0.4771436342219926  0.3304947743882974  0.3760477693619904   T   T   T
  0.0425997433697840  0.1924120913074450  0.5995017824762701   T   T   T
  0.8465988143641702  0.4302339709070814  0.6208005276977761   T   T   T
  0.1621656862241569  0.1191297577085831  0.1562254079751671   T   T   T
  0.1870303033001834  0.3835594678262895  0.8728094124978575   T   T   T
  0.5704100568113238  0.3132184744830133  0.0959706028412056   T   T   T
  0.9047724248250997  0.1267108783873524  0.8470438416435950   T   T   T
  0.6937364439598286  0.3950121977136033  0.8584965242518431   T   T   T
  0.4078727176905788  0.8191874030146998  0.3659195415888743   T   T   T
  0.2836103246125923  0.9135505714563998  0.6621548041006353   T   T   T
  0.9552580715977343  0.8071196395552668  0.3884659751603606   T   T   T
  0.5691394001025000  0.7148654211685395  0.6447992006737003   T   T   T
  0.1711456988426150  0.5689040130382340  0.4117353069841504   T   T   T
  0.7958913629750470  0.6022844902095060  0.1348466266741486   T   T   T
  0.8069490935371176  0.8562674960492765  0.9488205753843896   T   T   T
  0.3978295725669631  0.6489046921009872  0.8658063788074492   T   T   T
  0.3483840013533911  0.9476509931213585  0.9484872106499870   T   T   T
  0.2839043826488024  0.6032147306585243  0.1303997940828348   T   T   T
