Sr Co O 
 1.0000000000000000
     0.0132675557182757    5.4500631477287698   -0.0322279498852223
     9.6541147453528406    0.0220961144884279   -1.3453407117176901
    -3.4111528826070923   -2.6842884983980642   -8.7233681480974070
 Sr  Co  O  
   8   8  21
Selective dynamics
Direct
  0.5945502487968519  0.8397397628771480  0.1617781231992740   T   T   T
  0.9290701143953926  0.6559043446602680  0.8632877210341783   T   T   T
  0.8234819840983288  0.9360291338161918  0.6146274779980696   T   T   T
  0.7301176251086121  0.5744142798516345  0.4013285069554252   T   T   T
  0.0615289160515562  0.3596252884289080  0.1421768341170931   T   T   T
  0.4191827630601653  0.1555905608334293  0.8476124689091495   T   T   T
  0.3131846538525555  0.4475556458477720  0.6125781932825520   T   T   T
  0.2132984722410660  0.0405366865938617  0.3954252296866091   T   T   T
  0.0269732115584057 -0.0044195439860058  0.0301579021477518   T   T   T
  0.7757123333617431  0.2443662154931533  0.4897621463649133   T   T   T
  0.8514279529314287  0.3031429258130843  0.7542531737164961   T   T   T
  0.6134674115512574  0.1877098434091744  0.2080175800186949   T   T   T
  0.5203640588001857  0.5004917314560755  0.0160709346006807   T   T   T
  0.2812651255150520  0.7478113255079974  0.5108493384164734   T   T   T
  0.3715043246636808  0.8056333381176936  0.7773348314095472   T   T   T
  0.1322459510628547  0.6951023554737501  0.2393772830600294   T   T   T
  0.8097818400094732  0.4278199683005341  0.6246664526621379   T   T   T
  0.7112621568671373  0.0737594572948456  0.3495442547829655   T   T   T
  0.0753317409693275  0.2114182004307252  0.6392858141302823   T   T   T
  0.8907899775633760  0.3121927615915356  0.3534431589155381   T   T   T
  0.5648281469137532  0.1861045073511323  0.5899865431486320   T   T   T
  0.9463379852479105  0.2000107176170441  0.8838896849337577   T   T   T
  0.5270076115261302  0.3274963107245089  0.1004922190116693   T   T   T
  0.2647588713044758  0.1281367522155805  0.1743472060477712   T   T   T
  0.7095170566290587  0.0454609752365610  0.0508849194556003   T   T   T
  0.6145614151290498  0.4113106425886003  0.8514248819081316   T   T   T
  0.3362786169372173  0.9289162596416282  0.6476034998255921   T   T   T
  0.2345227751727110  0.5684740996370036  0.3754781948043006   T   T   T
  0.5769966505119056  0.7108610392460866  0.6488835761769154   T   T   T
  0.9889997823982172  0.8022361947537846  0.3877200384938009   T   T   T
  0.4452798682418053  0.7990493441298868  0.3771742740075209   T   T   T
  0.0887659505394422  0.6849295166613161  0.6203414045940492   T   T   T
  0.4678536265733274  0.6935988569161163  0.9013842841882953   T   T   T
  0.0608813773386085  0.8372431226853023  0.1253328162863442   T   T   T
  0.8090392138150639  0.5960996570208432  0.1561118527422819   T   T   T
  0.2526942882997631  0.5723108498320414  0.0821174631789412   T   T   T
  0.1227856397508657  0.9109868271723504  0.8665497019408520   T   T   T
