Sr Co O 
 1.0000000000000000
    -4.7161932400352686    2.8198022138971588    0.6898925341577483
    -4.7780280320871977   -8.5452600617385546    0.6305618027755834
     3.3354154964436691    2.9085861762146354    8.6321175276715501
 Sr  Co  O  
   8   8  20
Selective dynamics
Direct
 -0.0196946317547550  0.3214163881188740  0.8635161463374671   T   T   T
  0.9881962409492828  0.7070532044579317  0.1390435251494818   T   T   T
  0.0100002275885935  0.1439379834839030  0.3544116538066342   T   T   T
  1.0141834022062792  0.8352521972722993  0.6229066682356547   T   T   T
  0.4760609508412678  0.7807928212622679  0.9022102850453414   T   T   T
  0.4939502046746288  0.2153836997869108  0.1395374256339756   T   T   T
  0.5244790317962099  0.5916001377672090  0.3469210977989939   T   T   T
  0.4870071143176520  0.4021003273156669  0.6072026365610664   T   T   T
  0.0092973761129979 -0.0077489568630110  0.0058743820488960   T   T   T
  0.6339325244368262  0.0495228429155222  0.5423311953279339   T   T   T
  0.5200911899260867  0.9242968326198294  0.2527292313069314   T   T   T
  0.4721301952443583  0.1031217546107206  0.7920859408469986   T   T   T
  0.4818580399607084  0.4965183207579532 -0.0140954538723603   T   T   T
  0.0038224407762682  0.4960596307558449  0.4892165043948682   T   T   T
  0.0113092216571958  0.4043380262946754  0.2144673053661520   T   T   T
  0.9730620008592480  0.5933953881078446  0.7629640284196357   T   T   T
  0.7838752253644704  0.0615868660922349  0.7180113278371014   T   T   T
  0.7910215386364200  0.9091199972799631  0.3892695273023650   T   T   T
  0.4656148354918377  0.1132389059253161  0.4157666680377088   T   T   T
  0.7301928460862580  0.9919543129946600  0.1251983783929773   T   T   T
  0.2889388789509833 -0.0081199701699902  0.8572084973101319   T   T   T
  0.5048376786840106  0.7251172096465242  0.1630055912315432   T   T   T
  0.4319290945680112  0.2868296381061343  0.8039189909193756   T   T   T
  0.2347669636351712  0.9492336970552991  0.1521565625748236   T   T   T
  0.7796065101882238  0.3705762954902770  0.3445702672545759   T   T   T
  0.2245120215388286  0.6226127814580198  0.6401563325239034   T   T   T
  0.2394117213776536  0.3767365238013969  0.3601936424434757   T   T   T
  0.7640873231336537  0.6148662069370241  0.6054157431313895   T   T   T
 -0.0168836214943597  0.3880087886631295  0.6185099872865357   T   T   T
  1.0242427623053569  0.6069926063610086  0.3615747336253831   T   T   T
  0.2728209344187945  0.4406204459727066  0.1076684013247190   T   T   T
  0.7046335732494191  0.5490307886765253  0.8664149487731549   T   T   T
  0.0121298319002036  0.1946032315625515  0.0777561806969314   T   T   T
  0.9341899701668741  0.8050063939780308  0.8730257063568663   T   T   T
  0.1983319638066816  0.5717498133338702  0.9040634358914331   T   T   T
  0.7577549348503643  0.4448952968631046  0.0981927257951480   T   T   T
