Sr Co O 
 1.0000000000000000
    -4.8248524204439409    2.7814621147620944    0.6533743069954545
    -4.7815034868320003   -8.2142354313684436    0.8589483361020755
     3.3392675470892272    2.5241823480667871    8.8000442029806329
 Sr  Co  O  
   8   8  20
Selective dynamics
Direct
  0.0031356210550845  0.3103525599324642  0.8469706291406791   T   T   T
  1.0178015994708620  0.7179277772402726  0.1353620304977758   T   T   T
  0.0163084023007358  0.1360116161970252  0.3807620714486395   T   T   T
  1.0077360946306624  0.9011266584015288  0.6514300586797406   T   T   T
  0.4959792983076310  0.7886021840269276  0.8815460269581118   T   T   T
  0.4871431645738979  0.1926613219826396  0.1467706999334047   T   T   T
  0.5240386579245423  0.6104070490851875  0.3686957177391653   T   T   T
  0.5153403846130065  0.3441645917989790  0.5855456606564901   T   T   T
  0.0008360315345804 -0.0021016140210070  0.0148814592046566   T   T   T
  0.5015082524650135 -0.0000537019186023  0.5310147948157676   T   T   T
  0.5088772542057562  0.8987631909192674  0.2386566899125639   T   T   T
  0.4580003042218815  0.1051319782177128  0.7902955005403044   T   T   T
  0.5215729524269678  0.5020176190210128 -0.0226139718872642   T   T   T
  0.0176756332834868  0.4956850288887992  0.4732952492066752   T   T   T
 -0.0298457831818860  0.3944285997153733  0.2097267787082408   T   T   T
  0.9847318397271866  0.6020926040668462  0.7655711298343842   T   T   T
  0.3370317249217461  0.8565606590106518  0.3839393413368121   T   T   T
  0.7106225933298492  0.1341853511306388  0.6791762856492164   T   T   T
  0.2292888347701803  0.1294081221790183  0.6210644789063962   T   T   T
  0.4908155628642388  0.8970096472703503  0.6670089503381400   T   T   T
  0.5796495373425197  0.0824189908878686  0.3896622668196790   T   T   T
  0.7208163705310420  0.9452635972593837  0.1156739654456538   T   T   T
  0.2575057095436349  0.0339038059861578  0.8948946669979611   T   T   T
  0.5143544643975696  0.6909799574067026  0.1397139786338174   T   T   T
  0.4370009360496445  0.2992038564784629  0.9256929922476704   T   T   T
  0.2215923764729849  0.9722974258456101  0.1629231568330939   T   T   T
  0.7408428817367780  0.3665148308562393  0.3578815518603634   T   T   T
  0.2263691896440945  0.3586120997121954  0.3451537891385232   T   T   T
  0.8429829533225405  0.6419319934722948  0.5974911296832954   T   T   T
  0.0736694359183103  0.4197745390283085  0.6256887314061806   T   T   T
  1.0199861821707126  0.5958459286740415  0.3346383639141161   T   T   T
  0.6877189395300305  0.5263454394665334  0.8170595125275046   T   T   T
 -0.0614162517793744  0.1994468791857405  0.0827996823312287   T   T   T
  0.9545043326515775  0.8108437551716594  0.8692670711320860   T   T   T
  0.2088396575069920  0.5733948667856353  0.9063349117962526   T   T   T
  0.8211355307755053  0.4659910639070001  0.0753248000001085   T   T   T
