Sr Co O 
 1.0000000000000000
    -4.8331480976774301    2.7252251603925908    0.7157670831763979
    -4.8746995732155725   -8.2948267173789656    0.6952282814304372
     3.3657064988545335    2.8103883257107820    8.6071420357669535
 Sr  Co  O  
   8   8  20
Selective dynamics
Direct
  0.0241095038261439  0.3013638250304038  0.8543630914711058   T   T   T
  1.0013668222282670  0.7167690272857661  0.1650046443412577   T   T   T
 -0.0192217652094333  0.1167347387397397  0.4034835570994933   T   T   T
  0.9997837909394375  0.8390161404078825  0.5951594645010456   T   T   T
  0.5478209995258108  0.7523842681008243  0.8861581400693095   T   T   T
  0.4943985144523915  0.1971768636332731  0.1656559785219517   T   T   T
  0.4977296817036047  0.6123619211361157  0.3684719455963122   T   T   T
  0.5217010478027057  0.3788451850134575  0.5873609335743872   T   T   T
 -0.0112857594894029  0.0012749231965889  0.0337748716613057   T   T   T
  0.4764734031834885  0.0200723415458796  0.5280275203161569   T   T   T
  0.4966152532164329  0.9048755759658321  0.2515530695946744   T   T   T
  0.5747879335414864  0.0652225777986307  0.7884609240388919   T   T   T
  0.4939752079457628  0.4969048344922524  0.0166769203727584   T   T   T
  0.0129506480650217  0.4866236705647749  0.4853506087806582   T   T   T
 -0.0002641986256360  0.3921264469019979  0.2092420005444953   T   T   T
  1.0559914334495577  0.5706330899505018  0.7541367620193518   T   T   T
  0.2658420544268467  0.8774908924829675  0.3899147266398809   T   T   T
  0.7013517512428158  0.1552346134120342  0.6600937365480886   T   T   T
  0.7178461003545045  0.8963722166869272  0.4098112751637996   T   T   T
  0.2760160739649666  1.0599318624179137  0.6928362396577057   T   T   T
  0.4594024010173783  0.1113267081575378  0.3813190552970317   T   T   T
  0.7584399612394209  0.9539141362287330  0.1476542160357254   T   T   T
  0.5430424232994403  0.6977977918499612  0.1453359764867902   T   T   T
  0.2616375433128790  0.9149575259300334  0.0893462790831447   T   T   T
  0.7962541739384680  0.3507674056296456  0.3490665414814046   T   T   T
  0.2482068276941863  0.6248416324317599  0.6236636896728964   T   T   T
  0.2481981192514000  0.3852367721710466  0.3516092566498223   T   T   T
  0.7914736349736078  0.6089096523714741  0.6271503325203334   T   T   T
  0.0462327975397507  0.3631140438548152  0.6007047497465017   T   T   T
  0.9619535935793725  0.5941020694534317  0.3555910290381133   T   T   T
  0.2150460386437502  0.4643970191025689  0.1056903903672239   T   T   T
  0.8667295284861298  0.5736443059838859  0.8971603064839577   T   T   T
  0.0720068778757630  0.1929950198751416  0.0706308412728799   T   T   T
  0.7909862218663198  0.9532334606350189  0.8519851611950355   T   T   T
  0.3460590940513501  0.5048551127092165  0.8437615025413465   T   T   T
  0.7181923710126589  0.3833425228411771  0.0704943212731006   T   T   T
