Sr Co O 
 1.0000000000000000
     4.8651158709600724   -2.6960920321636523   -0.6248879038333840
     5.0943988300474814    8.4934662696481009   -0.0910205197695723
    -0.9879955458947310    0.4516794881547074    9.4523045763475046
 Sr  Co  O  
   8   8  20
Selective dynamics
Direct
  0.4120205992642748  0.0851079206893384  0.8156542684713061   T   T   T
  0.0964218734722199  0.3988878201321153  0.1595385915095273   T   T   T
  0.1555873534906326  0.0212610274085107  0.3473989519254431   T   T   T
  0.3023359212751686  0.4713697188752392  0.6568808491737654   T   T   T
  0.9670596400547138  0.6644375018266948  0.8938533696489227   T   T   T
  0.5708663064168322  0.8480904801939830  0.1253839048068425   T   T   T
  0.7183672678070818  0.5865292127434485  0.4065513657781024   T   T   T
  0.8036014947219796  0.9029458307175173  0.6022965397735591   T   T   T
 -0.0283218340291137 -0.0157164672651537 -0.0337208092856495   T   T   T
  0.6878790060967677  0.2402463216984703  0.4976885213508801   T   T   T
  0.5886353624852826  0.1865520797744004  0.1829107461364217   T   T   T
  0.8690533361596886  0.2917430577243075  0.7628270688001193   T   T   T
  0.5479100775720691  0.5318672188987337  0.0544676470175396   T   T   T
  0.2599571481286237  0.7461016339911074  0.5049336884818207   T   T   T
  0.1238898098380058  0.7135730257642189  0.2463414406656099   T   T   T
  0.4030947844144923  0.7794702572683414  0.7657717502456259   T   T   T
  0.5333783883312672  0.2545860267102489  0.6591673698661813   T   T   T
  0.8893945964397469  0.3814378164611281  0.5750862241248924   T   T   T
  0.7305842124049996  0.1004969135026389  0.3754109706643515   T   T   T
  0.2694516029051611  0.1694065190952051  0.1738053565497233   T   T   T
  0.0377064092657852  0.4069453724926687  0.8894692986350899   T   T   T
  0.6345841309342489  0.3787843122426503  0.1739357356209943   T   T   T
  0.9548800165707013  0.1085856308752885  0.8073575451315109   T   T   T
  0.7164889651526231  0.0861961793137275  0.0530936181441422   T   T   T
  0.4105780832638224  0.8001447672796720  0.3558544610666393   T   T   T
  0.1062992613325202  0.6991938690809727  0.6566981305503397   T   T   T
  0.9578292421141887  0.8000623780173620  0.3824744050142922   T   T   T
  0.5557082371890331  0.6867979483985177  0.6253477892306358   T   T   T
  0.3116123422061643  0.9161373335446965  0.6095773203765101   T   T   T
  0.2113903828504903  0.5753760092504915  0.3971566729954065   T   T   T
  0.8323402630758028  0.6256019095286295  0.1474993724785292   T   T   T
  0.6949736055769542  0.8708556701021223  0.8480763782023671   T   T   T
  0.0405685005179346  0.8746358475694542  0.1290610527446080   T   T   T
  0.4897917482320328  0.6104359772805197  0.8790927362082958   T   T   T
  0.2360105082405972  0.8777693172138977  0.8996017338914942   T   T   T
  0.2960710563126575  0.6180833782096401  0.1234558888364252   T   T   T
