Sr Co O 
 1.0000000000000000
    -4.6644845955333878    2.7544708161198246    0.7947698818092543
    -4.7906210536258174   -8.4828153002441553    0.5241801423607657
     3.1808677714639195    3.0936455031117767    9.0246702860812853
 Sr  Co  O  
   8   8  21
Selective dynamics
Direct
 -0.0211523956099357  0.2700338500646342  0.8622024804212270   T   T   T
  1.0096208206529165  0.7450709654805825  0.1430509733757664   T   T   T
  0.0047829338553205  0.1225800777101280  0.3966917571360577   T   T   T
  0.9757051877245176  0.8733898073561338  0.6039499669101668   T   T   T
  0.5123353136143243  0.7976532962886925  0.8885559722900903   T   T   T
  0.5359615897910847  0.2072042427946212  0.1488861707441683   T   T   T
  0.5015048139357412  0.6567183150605225  0.3436694813992995   T   T   T
  0.4953769223034900  0.3490781717287433  0.6362000898178272   T   T   T
  0.0180953449500263  0.0081720856694365  0.0074403633657476   T   T   T
  0.4919463821119427  0.0020438148005809  0.5044272983717112   T   T   T
  0.5186277855614329  0.9327195387408127  0.2393297949713767   T   T   T
  0.4704959453290969  0.0573900227279949  0.7640112084076384   T   T   T
  0.4873201755806999  0.5106691561127653  0.0039868847219855   T   T   T
 -0.0798991860345531  0.5001749568704511  0.4978954765052053   T   T   T
  0.0066063739035489  0.4224697594937079  0.2109277216515745   T   T   T
  0.9927410358105851  0.5729318364550793  0.7834940829158800   T   T   T
  0.2734644334064882  0.8897120827914787  0.3593469709389879   T   T   T
  0.7118377841380642  0.1175193894787449  0.6502615374153413   T   T   T
  0.7357201085982965  0.8962521092374340  0.3720379223738419   T   T   T
  0.2553288099117625  0.1156656044228067  0.6424885184664667   T   T   T
  0.4818647738798072  0.8608183594216963  0.5911406013344451   T   T   T
  0.4980310937629231  0.1299445549549272  0.3959728672668112   T   T   T
  0.7969914394553451  0.9943893844610956  0.1485727750520043   T   T   T
  0.2010483196592452 -0.0038401853225796  0.8450463619564906   T   T   T
  0.5425283718499802  0.7309321482703341  0.1100323154424812   T   T   T
  0.6917154308824383  0.0523515614736059  0.8951935387689091   T   T   T
  0.2943587385715007  0.9775734345255989  0.1260420469830362   T   T   T
  0.8634410188755349  0.3406324504015214  0.3368297089728314   T   T   T
  0.8027618729984545  0.6427536069043089  0.6601008642087323   T   T   T
  0.0120780295457528  0.3958837992981765  0.6081081202812585   T   T   T
  0.9699398981602231  0.6085229720264190  0.3839734455738374   T   T   T
  0.2235981588120637  0.5178133479782872  0.1346167475409464   T   T   T
  0.7257765031887098  0.4826747794043852  0.8616463216456856   T   T   T
  0.0910108999731409  0.2348294832998359  0.0877610874090575   T   T   T
  1.0220051842311537  0.7607895261182955  0.9049981898308974   T   T   T
  0.2558011030484328  0.4944082770048127  0.8568382202467034   T   T   T
  0.6892789880687855  0.4407231376292655  0.1155718535347972   T   T   T
