Sr Co O 
 1.0000000000000000
    -4.7110193037130745    2.7511564550444030    0.7903997790378624
    -4.7058013394401996   -8.2439726156233526    0.8440560255210879
     2.9916801968080091    2.6996270260169881    8.6483809063155874
 Sr  Co  O  
   8   8  21
Selective dynamics
Direct
 -0.0012307066147014  0.2930808366927494  0.8414566427400845   T   T   T
  0.9929960723973519  0.7208091253859474  0.1408935148026330   T   T   T
  0.0126424527979208  0.1312446531281565  0.4056822202455029   T   T   T
  1.0055970063075761  0.8605359428233622  0.6038864166870709   T   T   T
  0.5050516010895546  0.7630761266426831  0.8404335996457387   T   T   T
  0.4943449369315374  0.2205269135767111  0.1520634301955510   T   T   T
  0.5150279200479447  0.6335558956852035  0.3943047799308622   T   T   T
  0.5138905778977684  0.3656323743677562  0.6019015773726001   T   T   T
 -0.0162481162580049  0.0035975412310968  0.0013763941650017   T   T   T
  0.5100206666420041 -0.0005377960335471  0.5084154666714727   T   T   T
  0.4736281122451155  0.9123648340380850  0.2383559547039747   T   T   T
  0.5145717673165539  0.0916248267844779  0.7819758321133573   T   T   T
  0.5117234850876362  0.5015702293129788 -0.0129577129733559   T   T   T
  0.0154021127215655  0.4938934297560416  0.4876705125616143   T   T   T
 -0.0203294038998869  0.4025696585409663  0.2201868623293466   T   T   T
  1.0102485800782250  0.5886015969297885  0.7602830264792039   T   T   T
  0.2631668668473015  0.8785165659616686  0.3950297311084071   T   T   T
  0.7554353448617648  0.1191336545102012  0.6276908635777007   T   T   T
  0.7321700119878961  0.8777307081445570  0.3671769909347644   T   T   T
  0.2827661334611717  0.1214205940786777  0.6425567209052068   T   T   T
  0.5134394629794884  0.8942396277043999  0.6457537937147859   T   T   T
  0.5041609613745432  0.1066602863842449  0.3696659592548981   T   T   T
  0.5199629411444063  0.7346642212470041  0.1020275737970778   T   T   T
  0.4651886940704616  0.2812906366265096  0.9065308131385109   T   T   T
  0.6774805743486447  0.0245304295418947  0.9264023238099212   T   T   T
  0.1926773392279726  0.9794530065348275  0.1436063712010377   T   T   T
  0.7657950208582340  0.3728000788946250  0.3791068526879350   T   T   T
  0.2515385467279730  0.6131505702522330  0.6190814203097958   T   T   T
  0.2331241467415253  0.3710424712118846  0.3496346418132821   T   T   T
  0.7943445443492260  0.6217237961851541  0.6157937348675887   T   T   T
  0.0269916992384905  0.3894259661146224  0.6232791660379835   T   T   T
  1.0193032928562125  0.6000976053831221  0.3479589377946348   T   T   T
  0.7364754943099039  0.5283440840181696  0.8468767338115794   T   T   T
  0.0153104639412443  0.2146727921948490  0.0773594506287366   T   T   T
  1.0202680442402634  0.8101481603765802  0.8752379951420093   T   T   T
  0.2205524738242188  0.5399387136901609  0.9089173676339396   T   T   T
  0.7110107518276044  0.4743697087901722  0.1323838292505301   T   T   T
