Sr Co O 
 1.0000000000000000
     4.8066258062629901   -2.7424893966068860   -0.7654032118211093
     4.8381454639985000    8.2821409750531227   -0.9096255181382337
    -1.6440697732597331   -0.1131628934317682    9.5705104167498227
 Sr  Co  O  
   8   8  20
Selective dynamics
Direct
  0.4022159824086884  0.1223250751119274  0.8373632497321055   T   T   T
  0.1293069121094225  0.3486140224686930  0.1723614558889986   T   T   T
  0.2106603915119622  0.0731295797592892  0.4162149891351053   T   T   T
  0.2964822560453783  0.4530723906896409  0.5971981701898762   T   T   T
  0.9077506206619744  0.6727203828462149  0.8278850780186000   T   T   T
  0.5969646962008365  0.8964370454469978  0.1556841853600114   T   T   T
  0.7048250251212498  0.5746584631741071  0.3984805373716860   T   T   T
  0.7907119212086953  0.9323556782630643  0.5904958135445438   T   T   T
 -0.0432287300675455  0.0207603800540740 -0.0218563662025624   T   T   T
  0.7544876411763385  0.2553042673699645  0.5148311572448111   T   T   T
  0.6793887368685568  0.2081052213932767  0.2491616851097496   T   T   T
  0.8548671541263770  0.2982805181713320  0.7726600436055155   T   T   T
  0.5457184480447548  0.5738808204624944  0.0141849769062915   T   T   T
  0.2407197045403311  0.7519300035847618  0.4824781700242279   T   T   T
  0.1511235072487778  0.6815063513066684  0.2191205401201805   T   T   T
  0.3596769449382089  0.7991074305600120  0.7552319615242724   T   T   T
  0.9534175862171952  0.3008145831774728  0.3942557939229720   T   T   T
  0.5427582118097931  0.2203309406696424  0.6325151596337401   T   T   T
  0.5001299916945721  0.3264400699829493  0.3747855226457996   T   T   T
  0.0270044559145397  0.1818681145379714  0.6475216254753902   T   T   T
  0.8403891193193874  0.4350325884683421  0.6589106248965528   T   T   T
  0.6777351230423595  0.0752359095234897  0.3910203117428209   T   T   T
  0.4132190966864513  0.1548081093687551  0.1009798394031820   T   T   T
  0.8806545713715581  0.2098162810063150  0.9229458854604335   T   T   T
  0.9181153767626402  0.0856704129569474  0.1642577422189423   T   T   T
  0.4203782417881877  0.7959469644840544  0.3512983567889296   T   T   T
  0.0623145491671615  0.7127387371155254  0.6116266403184817   T   T   T
  0.9617872053393687  0.8035365941722850  0.3313400055673442   T   T   T
  0.5277855397939099  0.6982187708049095  0.6187966219803138   T   T   T
  0.3162594699581689  0.9282050201189909  0.6178958741621910   T   T   T
  0.1700761204898812  0.5670386155473720  0.3742498781817626   T   T   T
  0.6604631745629762  0.8966566925662602  0.8962980755986881   T   T   T
 -0.1124302673976516  0.5896617622617714  0.0624821518067581   T   T   T
  0.3825022337438889  0.6334201111902319  0.8480544810743388   T   T   T
  0.1471429808482660  0.9132254549230158  0.8736756588765390   T   T   T
  0.3816256489182657  0.5561465782453806  0.1455940736875183   T   T   T
