Sr Co O 
 1.0000000000000000
     4.6928874383155064   -2.7755602685464114   -0.6274499059786105
    -4.7268917226111338   -2.8114595965357210    0.8115347985173215
     3.0409963088666765    0.6222453337843448  -19.2493537706985798
 Sr  Co  O  
   8   8  21
Selective dynamics
Direct
  0.3636666245036123  0.7336955883323885  0.5503921071769072   T   T   T
  0.6201219051828670  0.2501696272212403  0.9511378244909020   T   T   T
  0.0562188513135990  0.8253631394733840  0.8292605067483558   T   T   T
  0.9287843352484555  0.1024464844624467  0.6789589760165813   T   T   T
  0.2200851238047533  0.6861564302412151  0.0708392554747046   T   T   T
  0.7600743952537697  0.3330973651657881  0.4274306243444111   T   T   T
  0.1714445270149238  0.9195357976381798  0.3061587177448697   T   T   T
  0.8384963436330520  0.1206209686687041  0.1829003415727296   T   T   T
 -0.0780384393475323 -0.0374520623232147  0.0044727340904535   T   T   T
  0.4948998753280469  0.3852292747600111  0.7521210365697789   T   T   T
  0.3265817960769049  0.5235895640525390  0.8925840141065428   T   T   T
  0.6704297939334598  0.4086258497363265  0.6084997963536418   T   T   T
  0.0790541413291657  0.0445187115697527  0.4944617247411033   T   T   T
  0.5517195331887000  0.5541995652140389  0.2505462928168326   T   T   T
  0.4780412914886559  0.6526217462482031  0.3826656530737331   T   T   T
  0.5296985563811830  0.3942414816865819  0.1208594924627469   T   T   T
  0.5254432875672383  0.2789877427051174  0.8299598552568971   T   T   T
  0.1731797600414689  0.4208566705054820  0.7973114997535723   T   T   T
  0.8109493996090770  0.6435905096634724  0.7088971758563856   T   T   T
  0.4369486606245724  0.1181369365123374  0.6642742546850662   T   T   T
  0.1514763712369633  0.7630037493368969  0.9393513571344538   T   T   T
  0.9547547785844588  0.2801940057151077  0.5735980344220810   T   T   T
  0.1233395286846395  0.2637981662631925  0.9506286215598284   T   T   T
  0.8437967830682740  0.7211484530680720  0.5703448128720821   T   T   T
  0.4135248607649057  0.2131636794643417  0.5377407923413472   T   T   T
  0.6676275167098846  0.7915730313058498  0.9253609571726764   T   T   T
  0.6758304266557131  0.4560913591202421  0.3146367822537305   T   T   T
  0.3772754247299922  0.6311533422315977  0.1929629016533423   T   T   T
  0.8460683762756837  0.6176748130020911  0.1779453160847010   T   T   T
  0.3725144694228978  0.1844587290369681  0.1987377895693937   T   T   T
  0.6575142496191295  0.9048669048988178  0.3144459574414168   T   T   T
  0.2144619246509267  0.7942785974316594  0.4195100784675955   T   T   T
  0.6853696302713302  0.1492238173270555  0.0663972670371752   T   T   T
  0.2541792292168324  0.3396878060356909  0.4219929761249324   T   T   T
  0.6960857152856713  0.6508163394746161  0.0560407698852520   T   T   T
  0.1954999469161109  0.1686511539908623  0.0756185516634333   T   T   T
  0.7518812620543162  0.8729851114050373  0.4506552423651697   T   T   T
