Sr Co O 
 1.0000000000000000
     4.7577460044455577   -2.6801538731657581   -0.7685558628041865
     4.9761407762625742    8.4888191644191444   -0.2697671914622974
    -1.3234258791897904    0.4547566322161182    9.5721216613680724
 Sr  Co  O  
   8   8  20
Selective dynamics
Direct
  0.4015475586622338  0.1277336798040546  0.8324304790539779   T   T   T
  0.0453405270460954  0.3800039417357527  0.1364155893511596   T   T   T
  0.1661843631772019 -0.0004634078652780  0.3387373056854416   T   T   T
  0.3183433757529325  0.4685203271800420  0.6688338393531061   T   T   T
  0.9322820877382879  0.6788905750067967  0.8773402090539757   T   T   T
  0.5611420398615962  0.8224531735342824  0.1122486347878259   T   T   T
  0.7025697026854302  0.5792235618735164  0.3841861234563889   T   T   T
  0.7800117350105438  0.9014115593209087  0.5910975447980767   T   T   T
 -0.0403578247117429 -0.0091909340911626 -0.0296346715978701   T   T   T
  0.7578839053191604  0.2386715480058210  0.5133590740488242   T   T   T
  0.6581327449891984  0.1681125780997751  0.2342600760365181   T   T   T
  0.8861053698510039  0.3124283197684801  0.8069287175480984   T   T   T
  0.4848079392562393  0.5109754756365740  0.0026189352093806   T   T   T
  0.2396258538992481  0.7361898844402857  0.4924556737602957   T   T   T
  0.1248545665157815  0.6888296637108746  0.2322939442652492   T   T   T
  0.3632540721800563  0.8018422477445665  0.7489469520106049   T   T   T
  0.5974279421843453  0.2572176048010332  0.6594371672755750   T   T   T
  0.7713975203093700  0.3280648701047343  0.3401870542754930   T   T   T
  0.0532648820019241  0.2642714231151841  0.6604651285932309   T   T   T
  0.6170533482391590  0.0790812857335411  0.3976427685835066   T   T   T
  0.1246894500438678  0.4452082117539746  0.8887405912841766   T   T   T
  1.0513128265734313  0.1691356822820880  0.9562106357788188   T   T   T
  0.6458641381794136  0.3718340634894431  0.9219508367081157   T   T   T
  0.7211240328971901  0.0587372633467500  0.0951079889154358   T   T   T
  0.4103261283273250  0.7844209229799799  0.3570529763585329   T   T   T
  0.0724643831761775  0.6930564030133839  0.6318430894207050   T   T   T
  0.9401195178106860  0.7881720681523635  0.3495930393273404   T   T   T
  0.5401168144568023  0.6902012962502503  0.6322569323216960   T   T   T
  0.2751086369037088  0.9157377540564314  0.5857697463518967   T   T   T
  0.1951268701966296  0.5630093923911397  0.3910637768975902   T   T   T
  0.8237082378797713  0.5964171431773039  0.1223375194962983   T   T   T
  0.6620880780674413  0.9087105145076518  0.8326183810430802   T   T   T
  0.0853746713487117  0.8454354927660906  0.1032272943934109   T   T   T
  0.4445584373476583  0.6693352408260587  0.8872178404510290   T   T   T
  0.1595950402455366  0.9122167112770379  0.8424805989532298   T   T   T
  0.3470507794095851  0.5746043635138454  0.1489780535407903   T   T   T
