Sr Co O 
 1.0000000000000000
     0.0365063023830505    5.4547420881337674    0.0705060635831109
    -9.8113673137614814   -0.0672848535773310    0.9989969305275020
    -1.0170504825983611    0.1209128600857910    9.5211809245712207
 Sr  Co  O  
   8   8  20
Selective dynamics
Direct
 -0.0042041015834928  0.7246590720460533  0.8506810513532782   T   T   T
 -0.0213871349354882  0.2607609175328081  0.1347419640542810   T   T   T
 -0.0052568397783167  0.8483816606641512  0.3837897408756849   T   T   T
  0.0170953563356619  0.0805095038483995  0.6602384100422637   T   T   T
  0.5000315875689109  0.1836958972427101  0.8867027223564190   T   T   T
  0.4817737359850039  0.7941751764283003  0.1247720476089663   T   T   T
  0.4547672731240601  0.3930448046670926  0.3343365774029461   T   T   T
  0.4842274915505156  0.6515900155810814  0.6004007454743383   T   T   T
 -0.0204808201310147 -0.0277017928761093  0.0165701904271102   T   T   T
 -0.0423220935279784  0.4988675213406188  0.4820231794572875   T   T   T
  0.0045039942340932  0.5869660530118136  0.2250236182565759   T   T   T
  0.0124044094926349  0.4141815363889245  0.8056852028637735   T   T   T
  0.4897832335142659  0.5170554489243712 -0.0381928823630824   T   T   T
  0.4973311795342353 -0.0014523217369619  0.5078668494901738   T   T   T
  0.4635120144844717  0.0822962568109987  0.2316285586078500   T   T   T
  0.5020281377675417  0.9021174999154947  0.7670327373604218   T   T   T
 -0.0330390946208772  0.3943533181912700  0.3333032907464409   T   T   T
  0.2284075214306526  0.6180650722175122  0.3920032770659086   T   T   T
  0.9208649457311480  0.5552898746094554  0.6552442279102794   T   T   T
  0.7340103248679072  0.6170186548642864  0.3487289617426218   T   T   T
 -0.0346789636040743  0.7587301126286871  0.1149092970000173   T   T   T
 -0.0112830767842666  0.2285037603639581  0.8534782885381094   T   T   T
  0.2967045458870015  0.5452007243546596  0.1161522175109427   T   T   T
  0.8278481445378956  0.4728453202984358  0.9591355735852785   T   T   T
  0.3587300642580027  0.4419078962006497  0.8095343593209142   T   T   T
  0.5245563753058226  0.9093946497726245  0.3552103892213997   T   T   T
  0.5093801872737747  0.0963668971460542  0.6575122571287617   T   T   T
  0.2501467149923286  0.8641889377253814  0.6382213584623952   T   T   T
  0.7303612944351178  0.8784914181817934  0.6104029728919598   T   T   T
  0.2992369450470869  0.1274615327971338  0.3977216137061758   T   T   T
  0.4659241867395631  0.2651754751067003  0.1360211761147878   T   T   T
  0.5069439410643312  0.7090949787750365  0.8609093736239322   T   T   T
  0.7011945859131975  0.0440991327777189  0.1016459717499839   T   T   T
  0.2683620730744700  0.9498026678212358  0.9035256748461412   T   T   T
  0.7804122992792227  0.9431624930027431  0.8698800253305553   T   T   T
  0.1631094698921542  0.0127001322605091  0.1631587311004589   T   T   T
