Sr Co O 
 1.0000000000000000
     0.0632434507104637    5.4968030139740547    0.0800866608092419
     9.7337269284439731    0.1241060138401343   -1.3829943163351854
    -3.5136509455546809   -2.9595275128501273   -8.7418308587711859
 Sr  Co  O  
   8   8  20
Selective dynamics
Direct
  0.5535324204603913  0.8254447812693584  0.1731558160497898   T   T   T
  0.9425084731335085  0.6408607635092548  0.8540970414835203   T   T   T
  0.8227299982948619  0.9262725247767979  0.6266511206646093   T   T   T
  0.7046377174537425  0.5711044533915971  0.4110861430330123   T   T   T
  0.0911402435912242  0.3813059445408744  0.0964160634808642   T   T   T
  0.4313842804465249  0.1748626672607967  0.8163557012641014   T   T   T
  0.3204632710452393  0.4505305208778692  0.6259693672726911   T   T   T
  0.2048534594526913  0.0287121654122258  0.4185141323529869   T   T   T
 -0.0119340774174288  0.0450207046090759 -0.0087268440329360   T   T   T
  0.7056811745952989  0.2406655334984438  0.4634004121067276   T   T   T
  0.8938957312768564  0.2962428935023886  0.7374007346867550   T   T   T
  0.7266347637479821  0.1385385992983047  0.1997325617322106   T   T   T
  0.5206237448302988  0.5173969654927616 -0.0182101801836603   T   T   T
  0.2609149567600941  0.7452182688585743  0.5291667607417101   T   T   T
  0.3812646427735489  0.8105323072307273  0.7999543824191827   T   T   T
  0.1015406809822719  0.6830454425497587  0.2609392526490351   T   T   T
  0.7764206926995363  0.4180615480589927  0.6003402008161371   T   T   T
  0.0543018500156297  0.2078900810470815  0.5940976679881731   T   T   T
  0.6398153807296929  0.0630586592286511  0.3345485869998395   T   T   T
  0.6220561592606947  0.3053477974927830  0.2900610160860750   T   T   T
  0.5938270942290760  0.1801884068511553  0.6064535924640028   T   T   T
  1.0072708892389746  0.1434143011634882  0.8547155594800563   T   T   T
  0.2170909554509684  0.4105900033418212  0.8642214937242590   T   T   T
  0.7814592912972373  0.1899162944405901  0.0494919687782458   T   T   T
  0.7174976036766838  0.4051233799411433  0.8651413635939994   T   T   T
  0.3114528308702070  0.9300827130453148  0.6639628509446480   T   T   T
  0.2189738219632709  0.5571607426948260  0.4056940260922075   T   T   T
  0.5706643680701818  0.7194721609696046  0.6704662013319337   T   T   T
  0.9518977761711351  0.7946378815948475  0.3945896640595495   T   T   T
  0.4154606353624941  0.7976189869031376  0.3961592720011093   T   T   T
  0.0832576761978560  0.6888500438961968  0.6452793070206626   T   T   T
  0.5206483134478728  0.6921968372666232  0.9200823543371426   T   T   T
 -0.0778392907878083  0.9863912234460386  0.1467030629656520   T   T   T
  0.7791452248668813  0.5708723397199336  0.1603606368714788   T   T   T
  0.2359667800141414  0.6250068898568508  0.1136289126705502   T   T   T
  0.1777600089830188  0.8993650220554720  0.9320999159349866   T   T   T
