Sr Co O 
 1.0000000000000000
    -4.7414924317114062    2.7979582399142591    0.6130316878343663
    -4.6275688880551691   -8.2049675214825584    0.6416108109082809
     3.3823558641514104    2.6891361003026106    8.8915966694264021
 Sr  Co  O  
   8   8  20
Selective dynamics
Direct
 -0.0297388024899923  0.3029290960415705  0.8575038051967607   T   T   T
  1.0183507364621112  0.7036146865072970  0.1325274449862259   T   T   T
  0.0219610579400711  0.1073122486408348  0.3592898604442679   T   T   T
  0.9922681875681856  0.8502731016563388  0.6212332503969616   T   T   T
  0.5011838078888365  0.7809199806343869  0.8688081082069876   T   T   T
  0.4947944830083066  0.2082527071513067  0.1441141703291321   T   T   T
  0.4893749805507499  0.6431546140691066  0.3982602954550802   T   T   T
  0.4975993499600837  0.3868723598611644  0.6128223550866838   T   T   T
 -0.0058642483405664 -0.0021771475157755 -0.0011645238760457   T   T   T
  0.5164117574344894  0.0078193914378842  0.4981061440333610   T   T   T
  0.5231217200556164  0.9174357471811369  0.2348638028297573   T   T   T
  0.4853882115120334  0.0684037303423564  0.7781920184604659   T   T   T
  0.5086500477136555  0.4999506228590807 -0.0005593917067212   T   T   T
  0.0161983902336503  0.4938797465091899  0.4975096562099329   T   T   T
  0.0267168269660148  0.4058900195548792  0.2190014775482312   T   T   T
  0.9965115919556842  0.5883058964766716  0.7635207528779505   T   T   T
  0.2858823713433586  0.8791149436619705  0.3505823198645643   T   T   T
  0.6456058645590264  0.1597432578902742  0.6672012693348939   T   T   T
  0.7498542239030590  0.8782497905174345  0.3781716253214967   T   T   T
  0.4656738419640438  0.8877797500552904  0.6125702064898306   T   T   T
  0.5317009644252838  0.1379010562173668  0.3888476549174056   T   T   T
  0.7724724217786844  0.9217782581104074  0.1262454084002923   T   T   T
  0.1977094908223139  0.0771438192016831  0.8555643979046703   T   T   T
  0.7037907324019060  0.0706094895357772  0.9196605878701855   T   T   T
  0.2894159074114258  0.9367038008066505  0.0972230885486393   T   T   T
  0.2381970357381248  0.6307830594363070  0.6482736223688410   T   T   T
  0.2458047359455564  0.3863716286130827  0.3754987190243217   T   T   T
  0.7672431904531601  0.6001027494934875  0.6065420914097384   T   T   T
  0.0213730088001904  0.3762696828608922  0.6243096281521605   T   T   T
  0.9646915263356083  0.5923832579911708  0.3617413246364150   T   T   T
  0.3179031753465518  0.4778321076991270  0.1387263491961902   T   T   T
  0.7135811971439475  0.5360531441696910  0.8675326344978695   T   T   T
  0.0081626857747808  0.1970664605887872  0.1492806636083115   T   T   T
  0.9651127602411640  0.8024738281468403  0.8563876463092516   T   T   T
  0.2400826204269879  0.5567009517220295  0.9089059935190458   T   T   T
  0.7746641491264117  0.4329521507294880  0.0854054141364165   T   T   T
