Sr Co O 
 1.0000000000000000
     4.7678747475132726   -2.7086981416599354   -0.6753332924548150
     4.8781320624490165    8.3081260366056906   -0.7535977709269720
    -1.4556818566800456   -0.0674509742977719    9.6095860785387224
 Sr  Co  O  
   8   8  20
Selective dynamics
Direct
  0.4174959503329971  0.1326130490872995  0.8443681827384844   T   T   T
  0.0945770981184718  0.3396557475710039  0.1619683399328360   T   T   T
  0.2190798143949272  0.0743825812622814  0.4063027920152229   T   T   T
  0.3036859757454543  0.4274326028742156  0.6079247156127445   T   T   T
  0.9044989669522080  0.6589736804134445  0.8269970830539438   T   T   T
  0.5445749076555115  0.8815073292552709  0.1066784071141109   T   T   T
  0.7124107348267529  0.5356936335666894  0.4086533520286336   T   T   T
  0.8076185240927093  0.9410897581945333  0.6268780151753944   T   T   T
 -0.0097069284328000  0.0196697879491710 -0.0123847474598807   T   T   T
  0.7594147962175096  0.2375730784182812  0.5097727262406936   T   T   T
  0.6469762573620792  0.1894786396496640  0.2461565560436247   T   T   T
  0.9103022165364009  0.2965083822134436  0.7696714900778143   T   T   T
  0.4161040818661845  0.5127600944015023 -0.0075139776724586   T   T   T
  0.2530473363914870  0.7467022162598608  0.4949599796819569   T   T   T
  0.1636265612405489  0.6743262784205248  0.2182625142067492   T   T   T
  0.3840422726706336  0.7953722303888057  0.7615958648154176   T   T   T
  0.9254416089300141  0.2906073636706353  0.3750491073375306   T   T   T
  0.5984037749280959  0.2033165636480423  0.6517286774915274   T   T   T
  0.4680636315189078  0.2990930248828542  0.3818838400861409   T   T   T
  0.0519094264659530  0.1736999735692780  0.6230556318261099   T   T   T
  0.8254305986147518  0.4210293020050745  0.6334254699169292   T   T   T
  0.6974894087975569  0.0578222214752584  0.3994872268689414   T   T   T
  0.3647704173546560  0.1194860024500320  0.1114709671877793   T   T   T
  0.2428698634017465  0.3754390666125120  0.8439285823297560   T   T   T
  0.5989930778743233  0.4413704092993844  0.1412578276475484   T   T   T
  0.9093978084504921  0.1960912756884416  0.9132453438857491   T   T   T
  0.8820586835165414  0.0669973668343202  0.1551451944866332   T   T   T
  0.3466375285026920  0.8185040106100063  0.3392264675103538   T   T   T
  0.0926556838230353  0.6956458341029623  0.6302345564982862   T   T   T
  0.5567966665147353  0.6923924380368504  0.6245981894579726   T   T   T
  0.3061768602138661  0.9199505030331714  0.6181870245482350   T   T   T
  0.1569385490565324  0.5747400909139982  0.3722556056019155   T   T   T
  0.6809934755847061  0.9057153009012027  0.8726226148201551   T   T   T
  0.4762817787795856  0.6584063098962718  0.9013116345269798   T   T   T
  0.1780517134230437  0.8993640761381327  0.8853024889391591   T   T   T
  0.0953904705298455  0.5660897752168912  0.0475920487033029   T   T   T
