Sr Co O 
 1.0000000000000000
     4.7539802898913077   -2.7194745293313036   -0.7000711498568850
     4.7889909497163270    8.1740888455030696   -0.7522568899566686
    -1.5108042698417221   -0.0580279198336638    9.4494414565892928
 Sr  Co  O  
   8   8  22
Selective dynamics
Direct
  0.4399523173317302  0.1235116406135209  0.8794905642218008   T   T   T
  0.0861663970708098  0.3620799549020308  0.1497363090189616   T   T   T
  0.1796843182792965  0.0644018188565524  0.3608679725761657   T   T   T
  0.2911803756593031  0.4488523366920346  0.5977430997486987   T   T   T
  0.9437139608287182  0.6432621298669458  0.8654656124765296   T   T   T
  0.5763275281355414  0.8646120425272869  0.1434234019291106   T   T   T
  0.6833924615371131  0.5731897131606982  0.3716391695180876   T   T   T
  0.7769133217787468  0.9229762888823784  0.6109287864936480   T   T   T
  0.0023168357325672 -0.0076057896658559 -0.0056970376663567   T   T   T
  0.7267565427617183  0.2627304925078601  0.5033842248526581   T   T   T
  0.6259577595502180  0.2128759159655239  0.2336198232415833   T   T   T
  0.8879673353642890  0.2825120106518799  0.7701732005867411   T   T   T
  0.4974677170186597  0.5076152445143941  0.0072245244612813   T   T   T
  0.2337956613547990  0.7558631190294126  0.5010462116908532   T   T   T
  0.1112971812412241  0.7135025153124306  0.2336726574608880   T   T   T
  0.3855049135730100  0.7833138539943942  0.7669820307859098   T   T   T
  0.9197774322952046  0.3076310917899100  0.3784879107317374   T   T   T
  0.5750558999426592  0.2118884666853852  0.6451272542107757   T   T   T
  0.4553362828256142  0.3265175052856822  0.3662925215739866   T   T   T
  0.8443548095134755  0.4191535525678922  0.6470658382175861   T   T   T
  0.6785936972726977  0.0862504273103969  0.3807019714837804   T   T   T
  0.3269676277387168  0.1196072924877068  0.1264328550611572   T   T   T
  0.1603645948846580  0.3749224667267812  0.8911401463343741   T   T   T
  0.5989753042911354  0.3556041246305648  0.1016319293741391   T   T   T
  0.9382402185764289  0.1166377247540332  0.8423444572763573   T   T   T
  0.8183683613783961  0.1090554021522731  0.1198928706279629   T   T   T
  0.3997015538500109  0.8146474805785149  0.3729979246473073   T   T   T
  0.0795077003788382  0.6962713194978712  0.6358446124693947   T   T   T
  0.9373443036226031  0.8091551514185507  0.3748255306287260   T   T   T
  0.5292476575374839  0.6907480933723416  0.6148313998617926   T   T   T
  0.2974436190245129  0.9276484613312447  0.6386910457860154   T   T   T
  0.1717636267992286  0.5812490379681406  0.3688334134564353   T   T   T
  0.8306358836851684  0.6065869418198212  0.1078294975106272   T   T   T
  0.6902088030644311  0.8728762914062156  0.8688219092788392   T   T   T
  0.0584848132530659  0.8703314189055217  0.1403554442951943   T   T   T
  0.4533096179771599  0.6024028125411598  0.8512227584137327   T   T   T
  0.2292814917346154  0.8720271322730984  0.9054443710957880   T   T   T
  0.3291415765324340  0.6205940307935272  0.1321837077284743   T   T   T
