Sr Co O 
 1.0000000000000000
    -4.7768335631236916    2.7500461288084797    0.7743293683100131
    -4.7143009396719693   -8.1375630229975631    0.7930307851885250
     3.0881420888409350    2.6865420739977073    8.7859065621093126
 Sr  Co  O  
   8   8  20
Selective dynamics
Direct
 -0.0166095662913166  0.2717280137705995  0.8463759144728311   T   T   T
  1.0012256327590876  0.7242399916849552  0.1442425631977790   T   T   T
 -0.0006953770579828  0.1190648330270417  0.3936529767918435   T   T   T
  0.9986334188433671  0.8777650234713417  0.6204131983728792   T   T   T
  0.4934823832872874  0.7823284232668517  0.8399435777157899   T   T   T
  0.5245175344776015  0.2277643527724054  0.1652263566505273   T   T   T
  0.5228587113702207  0.6436532153413146  0.4011591106123154   T   T   T
  0.5088562607267288  0.3639392810171641  0.5937510388675482   T   T   T
 -0.0250760585926444  0.0025617812931754 -0.0034930303000673   T   T   T
  0.5039291532572315 -0.0062393432401880  0.5003817598614335   T   T   T
  0.5190670730485291  0.9110670445121596  0.2343937349777521   T   T   T
  0.4746730066676697  0.0816047741839815  0.7675533770373292   T   T   T
  0.5198144711906275  0.5230628618799704  0.0219189283744968   T   T   T
  0.0168536852001760  0.4977466004659355  0.5015655920452400   T   T   T
  0.0232332052918587  0.3925020509197912  0.2112374697107506   T   T   T
  0.9695116509872734  0.5861141318300020  0.7651589821892090   T   T   T
  0.2801680935411374  0.8676979546782287  0.3583450290916179   T   T   T
  0.7125544747966457  0.1272821869375391  0.6394295189324035   T   T   T
  0.7567218441039141  0.8711125132071236  0.3845907771315099   T   T   T
  0.2603971548884180  0.1116331033549310  0.6254920263239544   T   T   T
  0.5107818466472561  0.8755461852097575  0.6227319048468108   T   T   T
  0.4925472333317277  0.1110220385821714  0.3715163289737739   T   T   T
  0.7784898187544771  0.9710387842535327  0.1439986533609191   T   T   T
  0.2048709709003010  0.0217101800721588  0.8609166235721923   T   T   T
  0.4474699705967159  0.7344927449245352  0.0837875445893777   T   T   T
  0.6931115781397920  0.0936629210092995  0.9123180405239762   T   T   T
  0.8124069123582141  0.3724701369181669  0.3647375517524988   T   T   T
  0.2182496355215280  0.6323073860216492  0.6426312992272327   T   T   T
  0.2626611686657376  0.4229586218154852  0.3655708023890645   T   T   T
  0.7560005988714084  0.6103376151755248  0.6045630832041078   T   T   T
  0.0424514998704641  0.3885190712418484  0.6534398884350667   T   T   T
  0.2449307551704279  0.4382124155453362  0.0678662051661764   T   T   T
  0.6952901172504604  0.5061414900558757  0.8542260467272739   T   T   T
  0.0799229385982485  0.1793052269281830  0.1397709849185111   T   T   T
  0.9659462130140419  0.7781577066057855  0.8978306857892603   T   T   T
  0.7649022171855457  0.4886386309731159  0.1500551517348601   T   T   T
