Sr Co O 
 1.0000000000000000
     0.0911630412309365    5.4026082125025692    0.1222743260038675
    -9.8528874956301511   -0.1789020760430152    1.1260285463725697
    -1.1217146239844977    0.2232576628073894    9.5538342350646452
 Sr  Co  O  
   8   8  20
Selective dynamics
Direct
  0.0172859094801371  0.7350790648428792  0.8394737070281242   T   T   T
 -0.0035412324872341  0.2718385964830441  0.1182282302393396   T   T   T
  0.0115550799984762  0.8654321835384262  0.3809049195916370   T   T   T
  0.0506837215183313  0.1012708841410149  0.6457160246841847   T   T   T
  0.5246192275030083  0.1941915394264614  0.8688405530801014   T   T   T
  0.4887663097892543  0.8162640005137984  0.0919300818074907   T   T   T
  0.4593948435204095  0.3584393125074437  0.3638219924590431   T   T   T
  0.5242667218681317  0.6462978152323001  0.6218589043784956   T   T   T
 -0.0033865282746123 -0.0038955071059050 -0.0037601457635681   T   T   T
  0.0003812727324078  0.4980246730508115  0.4908607163502661   T   T   T
 -0.1134485774610591  0.5915930916905585  0.2174435629151053   T   T   T
  0.0325854867679786  0.4148647465925207  0.7735277518712042   T   T   T
  0.4957828597096336  0.5160947832603719 -0.0348620245708846   T   T   T
  0.5118532958195601 -0.0039982307869180  0.4938058358086938   T   T   T
  0.4734043922003451  0.0843723114822850  0.2212366453899911   T   T   T
  0.5272420821948104  0.9138543469801228  0.7521400640240962   T   T   T
 -0.0018559530799569  0.4194461015842868  0.3259791340363730   T   T   T
  0.0359273799210021  0.5910916115756587  0.6369415266009317   T   T   T
  1.1914069976550175  0.3686915680439590  0.5915181430928961   T   T   T
  0.7749549914356262  0.6200189894719095  0.4064206361624713   T   T   T
  0.0049362333868551  0.7572381986441297  0.1170899279123876   T   T   T
  0.0344297332213489  0.2310904578237787  0.8639217531610019   T   T   T
  0.6633711318877806  0.4460201528580742  0.8269533782259543   T   T   T
  0.1520898058461346  0.4851396991421328  0.9353804447365540   T   T   T
  0.5798780678887322  0.5530055033449391  0.1407333099536986   T   T   T
  0.5249098482270258  0.9048476402036286  0.3423817854427094   T   T   T
  0.5471130061339707  0.1060198237471782  0.6315371876574709   T   T   T
  0.2768912889474222  0.8725247459983950  0.6301400084959532   T   T   T
  0.7542572755431660  0.8857825767157455  0.5976798810590577   T   T   T
  0.2854980355990591  0.1132864707698241  0.3888652952845996   T   T   T
  0.4916064263185738  0.2714221350803251  0.1398664841986749   T   T   T
  0.5210583147748170  0.7181005429705899  0.8587959011067590   T   T   T
  0.7082567232166792  0.0541501726912967  0.0856485116040766   T   T   T
  0.2836475389532092  0.9628273432614746  0.8844646795264605   T   T   T
  0.7969865945497405  0.9548090584188607  0.8579167612967546   T   T   T
  0.1721915346228231  0.0257635865175806  0.1465982626092376   T   T   T
