Sr Co O 
 1.0000000000000000
    -4.8908438114180264    2.7029957875381760    0.6005489784793812
    -4.9748145990542287   -8.2569676813560982    0.6337758906405376
     3.6775166842413136    2.7713706480656080    8.9180830631770611
 Sr  Co  O  
   8   8  20
Selective dynamics
Direct
  0.0499731238082215  0.3053251146287324  0.8252664802935887   T   T   T
  1.0349287208725921  0.7001904043723175  0.0844043447926811   T   T   T
  0.0001499984210863  0.0752569866369816  0.3612032291829256   T   T   T
  0.9795522239334238  0.8643247387844423  0.6509433897481646   T   T   T
  0.4998110571849047  0.7827189139990203  0.8682159527999517   T   T   T
  0.4660162009714391  0.1929205234791480  0.1662980052291062   T   T   T
  0.4742448088693525  0.6626515534703766  0.4255553231841488   T   T   T
  0.5022354889949755  0.3922307823586810  0.5882882477552233   T   T   T
 -0.0036328546724254 -0.0061686445263716 -0.0012089352626260   T   T   T
  0.5222473239304711  0.0255485698034343  0.5313567242365387   T   T   T
  0.4983990981761801  0.9021844874948046  0.2506801644155695   T   T   T
  0.4794182169803861  0.1057616722223775  0.8232631318017720   T   T   T
  0.5668301109104575  0.4622227031951012 -0.0564015277897654   T   T   T
 -0.0154951015879891  0.4993331100078232  0.4752335136251437   T   T   T
 -0.0579640898814014  0.3722075778122425  0.1908803246703638   T   T   T
  1.0057639037696964  0.5811556905948603  0.7414834662980428   T   T   T
  0.2573118936959041  0.8414050831724225  0.3304416669081103   T   T   T
  0.7281891633610017  0.8856217918001436  0.4173328292154490   T   T   T
  0.4209778516524812  0.1886251670106483  0.6805373472971687   T   T   T
  0.5144831224965278  0.9223684215906076  0.6563772915502845   T   T   T
  0.4957840663359982  0.1257366799614340  0.4005741149553056   T   T   T
  0.7435591958207698  0.9011069151533483  0.1489393302169583   T   T   T
  0.1592017933997875  0.0612485100144753  0.8602118116102014   T   T   T
  0.4372980276918348  0.3064166494492171  0.9714185483797843   T   T   T
  0.6737543188158230  0.0384290590183138  0.9396838397879251   T   T   T
  0.2781754389354316  0.9274371491572359  0.1000509998453952   T   T   T
  0.7252767007594018  0.4220108415114720  0.3394445587612236   T   T   T
  0.2244539758292364  0.6236828690011332  0.6186061379762942   T   T   T
  0.2016069492999673  0.4455860344198613  0.3344769968211223   T   T   T
  0.7688556093258845  0.6191213502761572  0.6077811420882641   T   T   T
  0.0069742802749974  0.3746778471249087  0.6013801514703853   T   T   T
  0.7457688854109290  0.5375980904662967  0.8398324970084009   T   T   T
  0.0016506993602553  0.1741066165821535  0.1621869436178980   T   T   T
  0.9819543699437575  0.7891932798781848  0.8665163753633001   T   T   T
  0.2779529831288538  0.5412177038323552  0.8820613715224480   T   T   T
  0.8564427119956459  0.4556956798328229  0.0579841859090077   T   T   T
