Sr Co O 
 1.0000000000000000
     4.7751493701174006   -2.6319864397822013   -0.6231195073645700
     4.9721671383153980    8.2192960897924010   -0.4704577851707356
    -1.2339059990890713    0.1341925104523477    9.5295852040124149
 Sr  Co  O  
   8   8  21
Selective dynamics
Direct
  0.4414453086720712  0.1351975222192492  0.8655314928120077   T   T   T
  0.0509932052283017  0.3562165500142115  0.1149553150210550   T   T   T
  0.1509288984931758  0.0376001602514962  0.3472760370030258   T   T   T
  0.3092902117501367  0.4796829197764900  0.6456953683665762   T   T   T
  0.9491017565017319  0.6745724231581975  0.8822050741086745   T   T   T
  0.5673092943298395  0.8486408789731239  0.1314551542446674   T   T   T
  0.7023958085811286  0.5836546807615156  0.3923409147325276   T   T   T
  0.7717674888687781  0.9309251410803170  0.6025131860324647   T   T   T
 -0.0037457335646593  0.0006233906166389 -0.0076324944172774   T   T   T
  0.7208537052878816  0.2627312096173601  0.4924622649186743   T   T   T
  0.6030651993506618  0.2016253302109357  0.2129349692663436   T   T   T
  0.8779349242216180  0.3113301710209219  0.7585850122146269   T   T   T
  0.5074344924362123  0.5181384090119363  0.0242756533206252   T   T   T
  0.2392322103779741  0.7613928796257278  0.5076058034401837   T   T   T
  0.1174142898595210  0.6984089990807276  0.2469154083270209   T   T   T
  0.3891040225829007  0.8097551821338821  0.7680222709654145   T   T   T
  0.8490596202561258  0.3099418686653018  0.3418668230354564   T   T   T
  0.5802209419327005  0.2284163362412220  0.6448465679486463   T   T   T
  0.6389368822369940  0.0975839643916526  0.3873819532949596   T   T   T
  0.8237269638811250  0.4245854112724384  0.6045361741126569   T   T   T
  0.2985974127083094  0.1270947566984710  0.1416106942466415   T   T   T
  0.1256725766144507  0.4211202120351448  0.8601142443011686   T   T   T
  0.5702308102715986  0.3328842012530233  0.0625776109306769   T   T   T
  0.9391560718081257  0.1748500449725118  0.8746338967043497   T   T   T
  0.7976708957125427  0.0705334809283239  0.1157353879107703   T   T   T
  0.3981733914575585  0.8034628632620642  0.3627549592815943   T   T   T
  0.0897706260557128  0.7184366428941446  0.6569719845429685   T   T   T
  0.9389163314046548  0.8101471234889297  0.3753500820085023   T   T   T
  0.5388920289810817  0.7071511429091145  0.6279792836088861   T   T   T
  0.2858444032343629  0.9405613844325457  0.6177374791198760   T   T   T
  0.1920654878910260  0.5819048020935720  0.4056729944039829   T   T   T
  0.8249815676721201  0.5961053365934099  0.1439534666260992   T   T   T
  0.6949713295682507  0.9031875424092417  0.8496986243620471   T   T   T
  0.0673910404918402  0.8311542714565516  0.1168252137110388   T   T   T
  0.4769562246627900  0.6444416907464745  0.8882743328722804   T   T   T
  0.2327535352941410  0.9151546083350491  0.9017986977166546   T   T   T
  0.3199867424344804  0.5762862052675454  0.1585381305512014   T   T   T
