Sr Co O 
 1.0000000000000000
     4.7436939462312120   -2.7897036272607574   -0.8779659126932230
     4.6575898845327970    8.2653553962339235   -0.5684718604441876
    -1.6991499026499977    0.2754545521242351    9.5139107944997647
 Sr  Co  O  
   8   8  20
Selective dynamics
Direct
  0.4312236379754146  0.1431775324995271  0.8610232829890552   T   T   T
  0.0824986730710289  0.3527372511782828  0.1595219316537856   T   T   T
  0.1824731757913360  0.0457879799553608  0.3735462577260082   T   T   T
  0.2827749321070374  0.4099061859191094  0.6013780869720303   T   T   T
  0.9664764899165577  0.6618653096783123  0.8872041390649926   T   T   T
  0.5644715513971081  0.8767930879954806  0.1394114707422322   T   T   T
  0.6757188756542695  0.5568707325629380  0.3598254050068529   T   T   T
  0.8113504115151753  0.9308551699562762  0.6127876840942444   T   T   T
  0.0038485029207186  0.0029269470038820  0.0040636370986604   T   T   T
  0.7424945455810368  0.2273111498752014  0.4991154179772913   T   T   T
  0.6196938352040802  0.2106857014160428  0.2285917168429714   T   T   T
  0.8724983829585226  0.3072070363961305  0.7610383095723854   T   T   T
  0.4807341373990107  0.4967076861763496 -0.0145329711695034   T   T   T
  0.2311020239130565  0.7365107945451667  0.5074733974616432   T   T   T
  0.1352938397520244  0.7034249783416374  0.2444440790261698   T   T   T
  0.3871835516537351  0.8049746860994080  0.7846265512031052   T   T   T
  0.9310325178421891  0.2832397522642229  0.3822507493883108   T   T   T
  0.5795224425097995  0.2009108178068690  0.6385081366988978   T   T   T
  0.4711288344374570  0.3090107405845045  0.3701655319525901   T   T   T
  0.0298034454788747  0.1873496038538408  0.6494022454213285   T   T   T
  0.6482980449874144  0.0626710004159262  0.3574202063034456   T   T   T
  0.2916525337929884  0.1368724353042300  0.0911697744916079   T   T   T
  0.1686458540435038  0.4093423692117059  0.8429543744782203   T   T   T
  0.6200092487673072  0.3800353524318428  0.1287087534398171   T   T   T
  0.6960689495936778  0.4189645172777767  0.8537809938931010   T   T   T
  0.8053680598780598  0.1063323037015100  0.1067298889375729   T   T   T
  0.4556205947793048  0.7873066737626960  0.4122998910364805   T   T   T
  0.1013637389372137  0.6726073211463428  0.6497243974686647   T   T   T
  0.9198653610380275  0.7899397698133566  0.3412623099868543   T   T   T
  0.2942212036539520  0.9118234532663817  0.6220426105672809   T   T   T
  0.1681126220509143  0.5609789357982120  0.3808698640867899   T   T   T
  0.6984023409950620  0.9125641384521714  0.8521388938919572   T   T   T
  0.0943382484965259  0.8497448378078896  0.1298809370031180   T   T   T
  0.5097065925828095  0.6778593234506312  0.9258453853649103   T   T   T
  0.1716337552384775  0.9230409849368041  0.8736370256929127   T   T   T
  0.2803687111926184  0.5886633724169709  0.1270895828500747   T   T   T
