Sr Co O 
 1.0000000000000000
     4.7372646974190697   -2.7802046214741662   -0.7138809041002542
     4.7656077216840558    8.3790973280191476   -0.7873619193150629
    -1.5443336411987618   -0.0563853351954168    9.4813616198974966
 Sr  Co  O  
   8   8  20
Selective dynamics
Direct
  0.4262383088865023  0.1270849748324521  0.8332586216996655   T   T   T
  0.0313510968868579  0.3510832981081239  0.1421847953879678   T   T   T
  0.2094964663905261  0.0466918667805255  0.4128934519401968   T   T   T
  0.3143920355870158  0.4603254671729903  0.6302136924121787   T   T   T
  0.9153013032997679  0.6635826107587850  0.8403244626011355   T   T   T
  0.5940345948727409  0.8464927172175878  0.1314461555703027   T   T   T
  0.7059262172939531  0.5811648431607083  0.4060709195151157   T   T   T
  0.7916120123567321  0.9242908788662946  0.6027552783140385   T   T   T
 -0.0080378664546171  0.0213586269650839 -0.0115098112161260   T   T   T
  0.7604066323065829  0.2477487614543792  0.5004615645364160   T   T   T
  0.5892441061119166  0.1677368527770380  0.2212010146932625   T   T   T
  0.8758888559998698  0.2980274974513112  0.7671618378149018   T   T   T
  0.5389072190844139  0.5210755973220396  0.0007564845509875   T   T   T
  0.2465324076126910  0.7446472978810883  0.4950593543988681   T   T   T
  0.1499235295034175  0.6784241250445697  0.2329127431158320   T   T   T
  0.3777785448500557  0.7996746923899077  0.7682778602921377   T   T   T
  0.7795973478402142  0.3294457231028629  0.3363267613567489   T   T   T
  0.5961628552391564  0.1705560667215474  0.6185981331285668   T   T   T
  0.0905217264018495  0.2321905654639051  0.6419224847134163   T   T   T
  0.7784849502346679  0.4277296474332671  0.6327240625576285   T   T   T
  0.7320517239701091  0.0681636125673666  0.3809256101795216   T   T   T
  0.2549011512614930  0.1212063317515859  0.1788898398198826   T   T   T
  1.0344714891260753  0.1947067103342713  0.9032005986342274   T   T   T
  0.6554734353198529  0.3735041234600970  0.8934806253920541   T   T   T
  0.7441516781231491  0.1109493934913896  0.0787998903603429   T   T   T
  0.4233939993620773  0.7951955456327069  0.3567808020313778   T   T   T
  0.0738679198644187  0.7042428761342125  0.6306837875285356   T   T   T
  0.9642881070306524  0.7945380424913840  0.3498334199816837   T   T   T
  0.5380812193995406  0.7007812602775665  0.6288727586239514   T   T   T
  0.3006252018750091  0.9239418171044791  0.6245624077867039   T   T   T
  0.1961843346573639  0.5547532889814072  0.3888610734414945   T   T   T
  0.8622334369653423  0.6219265896901189  0.0888810262813801   T   T   T
  0.7107335333159478  0.8918161423575652  0.8724248882081465   T   T   T
  0.3980380230772620  0.6412757124805012  0.8700443046421562   T   T   T
  0.2196596594461074  0.9034469883890393  0.9197259930559172   T   T   T
  0.3635827079831677  0.5507197307879731  0.1382925878995251   T   T   T
