Sr Co O 
 1.0000000000000000
    -4.6558676586530652    2.7280407111905087    0.7885082496803073
    -4.8049151388548648   -8.3402653911909841    0.9750521386333620
     2.9143307014520694    2.6384972082024287    8.7209727118246008
 Sr  Co  O  
   8   8  22
Selective dynamics
Direct
  0.0066489479879844  0.2999235629592092  0.8743589561772757   T   T   T
  0.9907432013416744  0.7083046484828867  0.1307030613501726   T   T   T
 -0.0007485098841683  0.1390980328783831  0.3783945644759663   T   T   T
  1.0100574506585724  0.8521307655700585  0.6140550918192593   T   T   T
  0.5114467683012900  0.7640080918229964  0.8461969817648060   T   T   T
  0.4886959324878274  0.2314835435379167  0.1437363877539863   T   T   T
  0.4976202730854586  0.6273671099311556  0.3834683433241964   T   T   T
  0.5261646192160816  0.3765732667245343  0.6198770225181598   T   T   T
  0.0154315630027844  0.0002304457484242 -0.0152430740654898   T   T   T
  0.5321885957374826 -0.0091797705189312  0.4966935342656121   T   T   T
  0.4637085653297859  0.9156878533340332  0.2341014140364113   T   T   T
  0.5224298272146978  0.0809254469817362  0.7792360473195233   T   T   T
  0.4997621069458921  0.5021643585612776  0.0005823652833566   T   T   T
  0.0090665316895021  0.4967832434901673  0.4988604498194968   T   T   T
 -0.0155207065476512  0.4165509713074328  0.2324027699582435   T   T   T
  1.0227756709333526  0.5823042216373805  0.7665377712866343   T   T   T
  0.2579314763592164  0.8942545972293194  0.4081137208638440   T   T   T
  0.7372316029350512  0.1167127828145524  0.6262899549492755   T   T   T
  0.7381085017985818  0.8771686269716814  0.3450160999242878   T   T   T
  0.5250698392143732  0.8936842072315809  0.6389851622269845   T   T   T
  0.5009529498456966  0.1080541416213623  0.3657170861472154   T   T   T
  0.1966915529250814  0.0477344665894101  0.8343217089773998   T   T   T
  0.4864343184764002  0.7380412282983798  0.1076863966711825   T   T   T
  0.5113581185716138  0.2724956656605050  0.8726928753231176   T   T   T
  0.6936772836756686  0.0159911518286678  0.9318923296125928   T   T   T
  0.1957105807059848  0.9769444316002071  0.1390640887727508   T   T   T
  0.7697001608153402  0.3833986718379790  0.3806723111611507   T   T   T
  0.2436582580530798  0.6144596382824725  0.6186425811600866   T   T   T
  0.2311688886362545  0.3819335167868145  0.3614511294181758   T   T   T
  0.7813384890984122  0.6124095151141656  0.6333952546237751   T   T   T
  0.0260470707168954  0.3823679612543827  0.6292439062418513   T   T   T
  0.9942967071347293  0.6096044772964774  0.3694239257784689   T   T   T
  0.2072752541247646  0.4651937476641070  0.1071785925626649   T   T   T
  0.7909803879636620  0.5384870148260041  0.8895288127054745   T   T   T
 -0.0291188182588610  0.2211000071211722  0.1223853437864033   T   T   T
  1.0216524124983510  0.7817124935610752  0.8793187324838905   T   T   T
  0.2992130427989842  0.5271030105017435  0.8544210573483870   T   T   T
  0.7010016577834591  0.4746430495283928  0.1452976765540219   T   T   T
