Sr Co O 
 1.0000000000000000
    -4.8024509825020800    2.6958875017252257    0.6954221831584184
    -4.8937565207685640   -8.2363192700230972    0.6751834435298290
     3.4046913163560051    2.7881696030783125    8.7840402420220602
 Sr  Co  O  
   8   8  21
Selective dynamics
Direct
 -0.0234511386147438  0.3092262960414655  0.8533373974157069   T   T   T
  0.9940053328829829  0.7189152173885585  0.1420580402503165   T   T   T
 -0.0303780042038815  0.1174268853148903  0.3743728871390741   T   T   T
  0.9905800447174915  0.8614689434510799  0.6401664553288431   T   T   T
  0.5211413853634413  0.7753515227587154  0.8846320442340014   T   T   T
  0.4851970299900522  0.1957529361721245  0.1422072828857693   T   T   T
  0.4800506373935536  0.6560203230262223  0.3946240353537391   T   T   T
  0.5141855835265213  0.3944495068635518  0.6085946163555837   T   T   T
  0.0055618550662048 -0.0004918606143957  0.0120473905023917   T   T   T
  0.4792793373526332  0.0142232384968290  0.5103501204252133   T   T   T
  0.4963596868778175  0.9145960587695799  0.2457930757922571   T   T   T
  0.4968998031110969  0.0735179066699692  0.7888299354060475   T   T   T
  0.4589199865118641  0.5051557997892846  0.0131686718445566   T   T   T
 -0.0365693485476294  0.5019182398457737  0.4839976624535573   T   T   T
 -0.0512338227561703  0.4035806795824049  0.2086897431047404   T   T   T
  1.0162592955117886  0.5856765196914016  0.7535639322551652   T   T   T
  0.2540801166924057  0.8936270203407015  0.3709107258906561   T   T   T
  0.7239733513317147  0.8931127838794863  0.3956770927450457   T   T   T
  0.6363512093669605  0.1639405160133736  0.6716375945721009   T   T   T
  0.4477176188609235  0.8954985406457869  0.6233668255081166   T   T   T
  0.4755815497987470  0.1265859872908688  0.3859917158241707   T   T   T
  0.7537481300254927  0.9460113570095778  0.1413732935676899   T   T   T
  0.2199085237162982  0.0914686633110147  0.8768418304451698   T   T   T
  0.5108250695647362  0.7015176732908432  0.1439306618435268   T   T   T
  0.7376413859682674  0.0294766328060691  0.9004238473894207   T   T   T
  0.2710294956152977  0.9454738767771661  0.1072153167850756   T   T   T
  0.7192496189099657  0.3934291638248177  0.3544482221376508   T   T   T
  0.2221139675248192  0.6054329030596491  0.6026364632979774   T   T   T
  0.7599633413618927  0.6335669865075604  0.6337148160378465   T   T   T
 -0.0075640126739175  0.3797101155797695  0.6026865971872418   T   T   T
  0.9903322887082343  0.5976235164236809  0.3488810432373368   T   T   T
  0.1973018086780780  0.4408701833381248  0.1004204875850484   T   T   T
  0.7972134624751652  0.5551321984561722  0.8737204110040949   T   T   T
  0.0204616381759763  0.2048299499621133  0.1661652157931082   T   T   T
  1.0537051597797358  0.7876934031686655  0.8629600821844124   T   T   T
  0.2897054641221937  0.5128956901083898  0.8476903325447688   T   T   T
  0.6885033805951076  0.3839647009810068  0.0541741643100393   T   T   T
