Sr Co O 
 1.0000000000000000
    -4.6641921825197272    2.7141815773770279    0.7550392695101316
    -4.7977995067971557   -8.3573521528954249    0.6442938063375406
     3.2451412774912511    2.9136226857363892    8.7731908771145743
 Sr  Co  O  
   8   8  21
Selective dynamics
Direct
  0.0033967702220246  0.3000354614853000  0.8535515307343250   T   T   T
  1.0187623937546968  0.6959934072024532  0.1155874640822496   T   T   T
  0.0378521375802531  0.1296199778587472  0.3691560482345529   T   T   T
  1.0000376148593999  0.8672238430090272  0.6540395230582300   T   T   T
  0.5084114988249234  0.7814554619264346  0.8745731356542431   T   T   T
  0.4997621264027698  0.2121941766147522  0.1188040344374549   T   T   T
  0.4804895886871969  0.6351611582498518  0.3793344002602168   T   T   T
  0.5148199388590992  0.3922364765382803  0.6312215225927349   T   T   T
  0.0058708678830983  0.0025559098489581  0.0087836355043049   T   T   T
  0.5225099354292693  0.0032764450804754  0.5049130460824734   T   T   T
  0.5147643845632750  0.9154530691917971  0.2274595055992267   T   T   T
  0.5157335227182166  0.0859904637947417  0.7783843223174975   T   T   T
  0.5162976947009198  0.4976267468308378 -0.0046791181539027   T   T   T
  0.0251935473564994  0.5044075877291475  0.4966427757775585   T   T   T
  0.0219270201551450  0.4080018006751540  0.2163281785472768   T   T   T
  1.0111814390071949  0.5873867563829415  0.7626113022525537   T   T   T
  0.7703521032706827  0.0974241768957751  0.6322725622634984   T   T   T
  0.2855687579168154  0.8950502532603051  0.3732381894796609   T   T   T
  0.4754891401830140  0.8938790785268134  0.6217232620274642   T   T   T
  0.5510836470736261  0.1173960551416846  0.3916868413232036   T   T   T
  0.8095134749714549  0.9411654943066252  0.1499502332221093   T   T   T
  0.2166656535020662  0.0687513939974170  0.8718825183345273   T   T   T
  0.5354454543947115  0.7081748981223621  0.1464136878697414   T   T   T
  0.4900992767635531  0.2884574862371473  0.8424293040604615   T   T   T
  0.7277949268981185  0.0224991769954156  0.8983298930961916   T   T   T
  0.2903728482055851  0.9782624451009502  0.1130072372008229   T   T   T
  0.2523553727118618  0.6234169472152975  0.6358892492033210   T   T   T
  0.2499822674904993  0.3846705145944791  0.3647543275303105   T   T   T
  0.7786789144815104  0.6136909474694521  0.6202437885758153   T   T   T
  0.0184293194189310  0.3813313307645433  0.6130155826356706   T   T   T
  0.9710195327207293  0.6029513267791639  0.3648541653174393   T   T   T
  0.2931554212261013  0.4580945935323327  0.1247503715628341   T   T   T
  0.7486046188816533  0.5450692576810511  0.8680086932377262   T   T   T
 -0.0330115838677990  0.2070596668874600  0.1533120373423682   T   T   T
  1.0205520370377408  0.7930037862567531  0.8786962459937908   T   T   T
  0.2520424255103026  0.5462186335629512  0.8848510991850748   T   T   T
  0.7801453021504959  0.4341638997532613  0.0926789435608889   T   T   T
