Sr Co O 
 1.0000000000000000
     0.0414568693133345    5.6343694501821844    0.0167018819729833
    -9.3390792700027099   -0.0751200995183161    1.5309783194407898
    -1.6282621104074397    0.0387291012794628    9.7504622493904254
 Sr  Co  O  
   8   8  20
Selective dynamics
Direct
  0.0080120405305071  0.7319116737270367  0.9004202886301615   T   T   T
 -0.0132333581580782  0.2821523583591666  0.1580479568151383   T   T   T
 -0.0394255083295366  0.8792563497043905  0.3455130964228190   T   T   T
 -0.0133285594763123  0.1359811773882321  0.5788501862106741   T   T   T
  0.5413188319306337  0.1876343732412735  0.8541269781518573   T   T   T
  0.4723847025201293  0.7868198031294769  0.1563642817185687   T   T   T
  0.4788947555802952  0.3835837009544109  0.3748149376245490   T   T   T
  0.5384529620180617  0.6299922615559014  0.6079287045986070   T   T   T
 -0.0107337313660460  0.0124539966335060  0.0023560394687328   T   T   T
  0.0078939353569360  0.5030149049825696  0.4995275770128454   T   T   T
 -0.0345072755657341  0.5821207113984552  0.2371915100175110   T   T   T
  0.0907657185746240  0.3795537261452538  0.7810044281313072   T   T   T
  0.4735463657706662  0.5267663479980293 -0.0026412026627482   T   T   T
  0.4961059674130329  0.0023927963355656  0.4943272578415892   T   T   T
  0.4659032219120658  0.0795310536106082  0.2376543275612720   T   T   T
  0.5527944913828727  0.9038604503743073  0.7686903791782616   T   T   T
 -0.0089395341840746  0.3823862077174532  0.3736837187914858   T   T   T
  0.2004075616072597  0.6308510052151314  0.3550426994972636   T   T   T
  0.8238451849286289  0.4083484824772998  0.6635656755818643   T   T   T
  0.2678229869770664  0.4179466332930715  0.6132785639098327   T   T   T
  0.7524661503968642  0.6091593085689021  0.3856412134393111   T   T   T
 -0.0673939557233984  0.7906598568757877  0.1188812305602122   T   T   T
 -0.0478432160156301  0.2379235038181983  0.9230386961547964   T   T   T
  0.2082543245745301  0.5387481158833819  0.1117452522601806   T   T   T
  0.3450338155204765  0.4168720324535864  0.8851696675222909   T   T   T
  0.7103786297128573  0.5078800389199264  0.1324263200654934   T   T   T
  0.4702375156779177  0.8683457286627022  0.3946800808631108   T   T   T
  0.4653514587292526  0.0986360656297095  0.6306246077440454   T   T   T
  0.7026420759051361  0.1446710473649419  0.3431225454148756   T   T   T
  0.7434673511285980  0.8890239423087624  0.6087969655275073   T   T   T
  0.2466487795742347  0.1159460206411369  0.3745793805283716   T   T   T
  0.5785265686245004  0.6919114533318570  0.8426172791919200   T   T   T
  0.6827433947640066  0.0473418664692520  0.1151234806600198   T   T   T
  0.3413217155737099  0.9182742175341490  0.9007344113742178   T   T   T
  0.8461712833019683  0.9937128779394174  0.8377876394152152   T   T   T
  0.2030132735942556  0.0383360844654664  0.1379834265913260   T   T   T
