Sr Co O 
 1.0000000000000000
     4.7094737159560340   -2.8636380426621497   -0.8716500071703086
     4.6291181794045428    8.4905272517887003   -0.3525393590962398
    -1.5372811272084776    0.4528206391218812    9.5280160058302137
 Sr  Co  O  
   8   8  20
Selective dynamics
Direct
  0.4435628240408127  0.1681971057357548  0.8738630409687935   T   T   T
  0.0445924822944499  0.3532771754942604  0.1080863352040730   T   T   T
  0.1650154971639115  0.0838240723769875  0.3840406615034747   T   T   T
  0.3186116588154013  0.4099765236598243  0.6058472383546293   T   T   T
  0.9242667931488452  0.6228985246604414  0.8583827838498960   T   T   T
  0.5816027668457314  0.8641618606358142  0.1570760427717451   T   T   T
  0.6555342085039619  0.5256585031629915  0.3328856448580055   T   T   T
  0.8269034693462421  0.9728918935446572  0.6585067143197910   T   T   T
 -0.0059963931246191 -0.0060512795985204  0.0070149694073164   T   T   T
  0.7461695589266539  0.2429198135901831  0.4922376992042563   T   T   T
  0.6214219080282943  0.2012028274067532  0.2303698800301602   T   T   T
  0.8861166045663805  0.2932985575120953  0.7580967640036709   T   T   T
  0.4934029527569870  0.4982289858996418 -0.0252727846685729   T   T   T
  0.1550354835074630  0.7183216799281672  0.5198925998686033   T   T   T
  0.1030542031331703  0.7019852891385513  0.2255759605864735   T   T   T
  0.3822604696015301  0.8031423330370887  0.8144399043268288   T   T   T
  0.9318805595441693  0.3104864971658730  0.3732895838755007   T   T   T
  0.5798643723138838  0.1833736073813059  0.6280142675888608   T   T   T
  0.4379320013055392  0.2851126212082663  0.3484030137036977   T   T   T
  0.0500934362550625  0.1914416656595931  0.6327178280149237   T   T   T
  0.7996803568051954  0.4161850013531193  0.6038471889075518   T   T   T
  0.6811064387906157  0.0649923527983483  0.3760058482361949   T   T   T
  0.1843295314204177  0.4078143299216677  0.8606153464540993   T   T   T
  0.5163683599697668  0.3370433416867708  0.1032184120800471   T   T   T
  0.9764063683291606  0.1522943801701645  0.8995957302723424   T   T   T
  0.6996487196616342  0.3849554607233203  0.8622657267055435   T   T   T
  0.7962258151951395  0.1022662837361648  0.1227241080547314   T   T   T
  0.0566882565619583  0.7630272344240469  0.6775290147044369   T   T   T
  0.9142734705248043  0.7725397280600258  0.3569195465768251   T   T   T
  0.3041989465086404  0.6135513338940897  0.4132428845846449   T   T   T
  0.8013079662819562  0.5862800659105440  0.1047108373709585   T   T   T
  0.7103549132038793  0.8732621783774412  0.8668289345809845   T   T   T
  0.1346231391526120  0.8936895796374102  0.1738062455066627   T   T   T
  0.4548342544567048  0.6228100975390199  0.8083362405509150   T   T   T
  0.2640043413945292  0.9363661224920136  0.9149572141086609   T   T   T
  0.3016239107059579  0.6275740599447731  0.1193283199126257   T   T   T
