Sr Co O 
 1.0000000000000000
     4.7102038692351442   -2.7833881737795041   -0.7288535132844532
     4.6819078540900891    8.3105798608176293   -0.7698357902039029
    -1.5729438149884549   -0.0319683830647967    9.4625803800986326
 Sr  Co  O  
   8   8  21
Selective dynamics
Direct
  0.4734718123168421  0.1296380385151245  0.8714788128211195   T   T   T
  0.0931283498619863  0.3545166655254109  0.1656638079892886   T   T   T
  0.1764362248921356  0.0506197248367260  0.3539575122596378   T   T   T
  0.3093349296948306  0.4574297460973225  0.6095022511364951   T   T   T
  0.9399531547590216  0.6670834864414807  0.8571189835362755   T   T   T
  0.5632385705545757  0.8638622749617615  0.1333409391239149   T   T   T
  0.6996400437754327  0.5579113985024367  0.3957901835713306   T   T   T
  0.7963619612657526  0.9157388584588028  0.5903608023332857   T   T   T
  0.0133682989301187 -0.0065137468701702  0.0006889792009957   T   T   T
  0.7475103895586037  0.2472250889088129  0.5086609640805210   T   T   T
  0.6222390467325738  0.2101673958394287  0.2377625321681118   T   T   T
  0.9096475766692580  0.3313677501743229  0.7898855859831825   T   T   T
  0.4907486889555961  0.4920427668153970 -0.0062323996019092   T   T   T
  0.2498406663678650  0.7508509884894283  0.4926537832051831   T   T   T
  0.1251865801469282  0.7010102897981109  0.2268543444918882   T   T   T
  0.3999280210330376  0.7988337368050380  0.7630334946224168   T   T   T
  0.9227746626982749  0.3031909592968001  0.3823219807039563   T   T   T
  0.4501774897769386  0.2963828867881233  0.3822087243354942   T   T   T
 -0.2792865639196795  0.1701619611149121  0.6724510132724425   T   T   T
  0.8074386814707827  0.4294696670741980  0.6269660633961461   T   T   T
  0.6980087496270982  0.0726706134169626  0.3737246755011968   T   T   T
  0.3023110392096466  0.1130403495580393  0.1163001298994559   T   T   T
  0.2499579311863432  0.3507010511621497  0.8316621046200139   T   T   T
  0.5732964793928840  0.3833646036749752  0.1474822239427845   T   T   T
  0.7825978882746255  0.4126636210211670  0.9346525303689852   T   T   T
  0.8105590807770202  0.1151872550002030  0.1056807215343056   T   T   T
  0.4265904397923913  0.8123174586023586  0.3688573527771192   T   T   T
  0.0968114227061519  0.6939306329036810  0.6321965997854094   T   T   T
  0.9450809209063857  0.7885797303807393  0.3608796698369892   T   T   T
  0.5449265303621023  0.6973381697522365  0.6185839201255180   T   T   T
  0.3001544480718779  0.9287111330232093  0.6189926996536803   T   T   T
  0.1915170170939781  0.5700821461006929  0.3653075866898765   T   T   T
  0.7254521367148492  0.9109475555466451  0.8506829332680262   T   T   T
  0.0152497664209125  0.8390540829512524  0.1150120209502780   T   T   T
  0.4944788420151230  0.6469948702437813  0.8892411728480184   T   T   T
  0.2342119913317048  0.9043832283126291  0.8913686241378319   T   T   T
  0.2611567201345343  0.5955439387346293  0.0909065070116570   T   T   T
