Sr Co O 
 1.0000000000000000
    -4.8676774412726083    2.7318125051068658    0.7008842012535047
    -4.8389197504735799   -8.1556316658298780    0.6035301113393421
     3.4741752616487114    2.7945270607150396    8.9929075944571313
 Sr  Co  O  
   8   8  20
Selective dynamics
Direct
  0.0127621721705536  0.2795136585576512  0.8647505447635790   T   T   T
  0.9872378278294504  0.7204863414423494  0.1352494552364237   T   T   T
 -0.0289329661534397  0.1149025407645829  0.3799492184127986   T   T   T
  1.0289329661534452  0.8850974592354186  0.6200507815872044   T   T   T
  0.4873424200440940  0.7981662490048292  0.8992830512467961   T   T   T
  0.5126575799559112  0.2018337509951712  0.1007169487532073   T   T   T
  0.4986616266712222  0.6256090565277876  0.3347736647142388   T   T   T
  0.5013383733287821  0.3743909434722130  0.6652263352857635   T   T   T
 -0.0000000000000001  0.0000000000000001  0.0000000000000000   T   T   T
  0.5000000000000011  0.0000000000000006  0.5000000000000012   T   T   T
  0.4795190487469214  0.9169436724628087  0.2321886950406873   T   T   T
  0.5204809512530806  0.0830563275371912  0.7678113049593158   T   T   T
  0.5000000000000032  0.4999999999999999 -0.0000000000000002   T   T   T
  0.0000000000000014  0.5000000000000006  0.5000000000000017   T   T   T
 -0.0049348430280214  0.4059194564232474  0.2166933659132514   T   T   T
  1.0049348430280236  0.5940805435767527  0.7833066340867519   T   T   T
  0.2631194628747714  0.8949018614503257  0.3746903990362208   T   T   T
  0.7368805371252326  0.1050981385496749  0.6253096009637823   T   T   T
  0.7162054658394426  0.8846055132840867  0.3729211075368351   T   T   T
  0.2837945341605621  0.1153944867159149  0.6270788924631674   T   T   T
  0.7226036714710566  0.9716382946315480  0.1434389774594828   T   T   T
  0.2773963285289488  0.0283617053684541  0.8565610225405192   T   T   T
  0.4382788301232549  0.7062706864850994  0.1153867798143400   T   T   T
  0.5617211698767514  0.2937293135149019  0.8846132201856619   T   T   T
  0.7557596660629772 -0.0186504904832180  0.8358352762672741   T   T   T
  0.2442403339370292  1.0186504904832197  0.1641647237327311   T   T   T
  0.8045033399789691  0.3675564303404031  0.3545019825935693   T   T   T
  0.1954966600210328  0.6324435696595972  0.6454980174064345   T   T   T
 -0.0472283888468115  0.4010953950848515  0.6200901751098180   T   T   T
  1.0472283888468150  0.5989046049151493  0.3799098248901843   T   T   T
  0.2660245628664687  0.4346829990741816  0.1391799597017349   T   T   T
  0.7339754371335354  0.5653170009258184  0.8608200402982655   T   T   T
 -0.0433596264352654  0.2079733956009845  0.0791977038382190   T   T   T
  1.0433596264352709  0.7920266043990168  0.9208022961617831   T   T   T
  0.2470886798820203  0.5000574814614481  0.8703778758082799   T   T   T
  0.7529113201179827  0.4999425185385518  0.1296221241917211   T   T   T
