Sr Co O 
 1.0000000000000000
    -4.6821781153290543    2.8423641993455884    0.7563040324485901
    -4.4848505371222718   -8.2613593212134795    0.6135704949846260
     3.0626213973673471    2.8565608510196570    8.8956501089908198
 Sr  Co  O  
   8   8  20
Selective dynamics
Direct
 -0.0065485526566632  0.2907979916446671  0.8497938701830432   T   T   T
  1.0045283888116472  0.6918316026753254  0.1078167269727617   T   T   T
  0.0218496770794950  0.1376135617218078  0.3969562054495626   T   T   T
  0.9900718121068895  0.8863088866737774  0.6489463970851389   T   T   T
  0.5049990170350019  0.7781721389806620  0.8468439253882377   T   T   T
  0.4876665918389263  0.2122314813690805  0.1314394813718827   T   T   T
  0.5089383807303032  0.6331272571401541  0.4002954159196213   T   T   T
  0.4975549582074555  0.3802505776388532  0.6258044241150611   T   T   T
 -0.0125185867800616 -0.0031773728568671  0.0071611028867911   T   T   T
  0.5122088817644629  0.0111626046313835  0.5088588247931630   T   T   T
  0.5322512264315202  0.9420501992427515  0.2369708796617212   T   T   T
  0.4829376308494146  0.0835658544585975  0.7724381164119225   T   T   T
  0.5120025304970155  0.4965930415066971 -0.0065564901874890   T   T   T
  0.0175624218729645  0.5065050702189121  0.4926950712328112   T   T   T
  0.0146379883175118  0.4017386150323284  0.2146865206580516   T   T   T
  1.0049393458568134  0.5871611693334327  0.7575400165915631   T   T   T
  0.7320478124031128  0.1328073479507058  0.6561810389051068   T   T   T
  0.7124899180478846  0.8780424364288394  0.3650767391267358   T   T   T
  0.2692811457712000  0.1268069073184516  0.6347352225969515   T   T   T
  0.4638978762514854  0.8736376098265748  0.6048870359418571   T   T   T
  0.5190536303897650  0.1347764462098223  0.3923072662486489   T   T   T
  0.7335771362337755  0.8910165105936247  0.0852439342995866   T   T   T
  0.2312551312179841  0.0906050395528322  0.9029818086824706   T   T   T
  0.7115001894853142  0.0483750984090873  0.8871717297821942   T   T   T
  0.2416816408286748  0.9440612112045111  0.1580668902859504   T   T   T
  0.2511996237173237  0.6159090716249982  0.6297874428428722   T   T   T
  0.2357727522155182  0.3819689410159451  0.3618630945499923   T   T   T
  0.7787343512060301  0.6211981651933187  0.6196891699649891   T   T   T
 -0.0102506837699529  0.3849013991457982  0.6114569509938391   T   T   T
  0.9696926658755397  0.5989851320249356  0.3556631802172849   T   T   T
  0.3017757248175851  0.4841667590000240  0.1316108862500950   T   T   T
  0.7349348577872266  0.5379063101607215  0.8697069877231763   T   T   T
 -0.0515252815685553  0.1942368026028705  0.1598447339695850   T   T   T
  1.0399541009488678  0.8003779852013040  0.8672081066252185   T   T   T
  0.2573444298118498  0.5330906735368149  0.8817456963351342   T   T   T
  0.7635015417486937  0.4281971406628675  0.0850812205106246   T   T   T
