Sr Co O 
 1.0000000000000000
     4.8416653228431983   -2.7916998812119167   -0.5981437966251075
     4.6469403624247532    8.0418079038506409   -0.7960894036728493
    -1.3475236580867851   -0.1617577544511840    9.6324483125697071
 Sr  Co  O  
   8   8  20
Selective dynamics
Direct
  0.4469957953650397  0.1352177527229761  0.8517712793403143   T   T   T
  0.0547158614529109  0.3728144038542232  0.1320224135081988   T   T   T
  0.1971702285243014  0.0714096513980912  0.3897294365528903   T   T   T
  0.3526929570193990  0.4383335552624786  0.6477912386791074   T   T   T
  0.9349714355751262  0.6463801131926661  0.8750010477853798   T   T   T
  0.5384876115973061  0.8525791962210416  0.0904468020201405   T   T   T
  0.6781636689355520  0.5564416272406447  0.3701423346995206   T   T   T
  0.8425371010773286  0.9058304947624177  0.6413239979159550   T   T   T
  0.0012090449064511 -0.0025860191204169  0.0120042727900064   T   T   T
  0.7673869262699931  0.2398276850619382  0.4991412760256116   T   T   T
  0.6019779480062764  0.2130536261276840  0.2151096903205334   T   T   T
  0.9116720269520127  0.2914489527545907  0.7638839119780507   T   T   T
  0.4870184609299658  0.5080001891329908  0.0059784158726604   T   T   T
  0.2386996507051334  0.7360978469249064  0.5024096927245862   T   T   T
  0.0688316651661251  0.7172018693919152  0.2309343108383751   T   T   T
  0.3890920821006724  0.7841024623382391  0.7600423691679907   T   T   T
  0.8995332417683491  0.2764101716304453  0.3499670032902185   T   T   T
  0.6371520103151649  0.1867688336937142  0.6438701654464698   T   T   T
  0.4790544401553138  0.2871427286462147  0.3970666362418735   T   T   T
  0.0642153210075254  0.2072266125455085  0.6140796075697498   T   T   T
  0.3248473674567560  0.1009450528968233  0.1419777956192904   T   T   T
  0.1978610982841436  0.3751076334408954  0.8665921835589843   T   T   T
  0.5045716560808139  0.3862188032970315  0.1391396830075503   T   T   T
  0.7297262626681397  0.3831648767098871  0.8779806790014687   T   T   T
  0.7851268685907776  0.1393292960344325  0.0701835257941367   T   T   T
  0.0944227187659678  0.6691197509582155  0.6551015360788740   T   T   T
  0.9512280362998606  0.8082372468306711  0.3978045486564554   T   T   T
  0.5455333318432756  0.6756206521910144  0.6080079481222882   T   T   T
  0.3178163471585869  0.9158119810851696  0.6230919981470249   T   T   T
  0.2051070551604653  0.5815501868344887  0.3537946258577453   T   T   T
  0.7747566853662726  0.6110660905235232  0.1394071414563036   T   T   T
  0.6919318148155263  0.8936767172021266  0.8636600756786745   T   T   T
  0.0057659220909986  0.8902595554595798  0.1637983286871076   T   T   T
  0.4757547204934346  0.6367313481054498  0.8753816433024086   T   T   T
  0.1883865892772614  0.9106690667427197  0.8812732007651025   T   T   T
  0.2505862534436580  0.6457900748034050  0.1000889372457095   T   T   T
