Sr Co O 
 1.0000000000000000
    -4.8479734465843167    2.6973349602808612    0.6652407479018333
    -4.8733119006096146   -8.1341514547455773    0.6915178895928664
     3.4651591833972275    2.7069134700766417    8.6795952148339541
 Sr  Co  O  
   8   8  20
Selective dynamics
Direct
  0.0058555645820243  0.2683126692490374  0.8414371214267519   T   T   T
  0.9838703037920145  0.6852241925233494  0.1555538879417143   T   T   T
 -0.0105231856429552  0.1040427869126248  0.3757128843481688   T   T   T
  1.0142032644332024  0.8731329986912207  0.6148774549636251   T   T   T
  0.5042519294903799  0.7960396983714620  0.8576720505266617   T   T   T
  0.4636621987033693  0.2118422417085026  0.1155583600799612   T   T   T
  0.4749128570149971  0.6039491207398724  0.3966034345386075   T   T   T
  0.5048647745682003  0.3424338270357328  0.6080375714653503   T   T   T
 -0.0089547372792914 -0.0173150324224460 -0.0195118403177724   T   T   T
  0.5052556821273914 -0.0368081406060514  0.4843840687116863   T   T   T
  0.4813247365678395  0.9133982021415913  0.2188589116411369   T   T   T
  0.5033201625658235  0.0818149577938223  0.7545334120339334   T   T   T
  0.5247478908669591  0.4890434957317049 -0.0168046427226206   T   T   T
  0.0192825030921572  0.4809622888774395  0.5131442699528659   T   T   T
 -0.0442747045655214  0.4026796527959167  0.2475546444099459   T   T   T
  1.0370141705572227  0.5884929481088389  0.7950694150733064   T   T   T
  0.2820743418847693  0.8524493801984715  0.3355006538988951   T   T   T
  0.7293347755546005  0.1004903088362991  0.6144205478598630   T   T   T
  0.7250349260135305  0.8720562828162040  0.3437250302424105   T   T   T
  0.2713340328815204  0.0926050423552079  0.5964491940629874   T   T   T
  0.5255618234720671  0.8638312976124058  0.6288281175406695   T   T   T
  0.7054701361730853  0.9658282721721854  0.1218411243141150   T   T   T
  0.2561250488075269  0.0452351221861724  0.8688297439949905   T   T   T
  0.4695701898620873  0.2970333910256067  0.8462932894585676   T   T   T
  0.7561331916275247  0.0854121003700005  0.9058054518973370   T   T   T
  0.2196043793767919  0.9875359923085913  0.1356535611718830   T   T   T
  0.7523947213935869  0.3671260271070121  0.3849352771534984   T   T   T
  0.2697028555283336  0.5890141916138576  0.6468951510326020   T   T   T
  0.2155804628206680  0.3289255331717432  0.3533828552824616   T   T   T
 -0.0189063441616063  0.3920024696230490  0.6510945947071478   T   T   T
  0.9989339498323332  0.6150677800503892  0.4113553770573655   T   T   T
  0.7749855397295502  0.5652257821581534  0.9020155655696287   T   T   T
  0.1446056284388520  0.4107140251536565  0.1113581856237476   T   T   T
  0.9590388040363239  0.7884404770549241  0.8281692355143002   T   T   T
  0.2867775306623832  0.6187153339248749  0.9580656924513103   T   T   T
  0.6718312678566966  0.4750454332428979  0.1567003479107538   T   T   T
