Sr Co O 
 1.0000000000000000
    -4.7146876504804975    2.7588593655924494    0.7896987733800035
    -4.7407849860046030   -8.2764138627277255    0.7602094934269550
     3.0294483048827714    2.7767012408152243    8.7803932881752900
 Sr  Co  O  
   8   8  21
Selective dynamics
Direct
  0.0152558072536854  0.2942010838373307  0.8441210400338544   T   T   T
  0.9910389911264761  0.7111202718384729  0.1575065413334769   T   T   T
  0.0013799351836746  0.1213687265020429  0.3939726965743772   T   T   T
  1.0257988638503508  0.8801154767575321  0.6099894371574393   T   T   T
  0.5197958593451203  0.7678717377904699  0.8666422263239945   T   T   T
  0.4729776741636270  0.2198923455029069  0.1468593892172417   T   T   T
  0.4881187317171674  0.6415526695150214  0.3843017452872680   T   T   T
  0.4998952026384115  0.3532256066602679  0.5925750784594133   T   T   T
  0.0208974137336868 -0.0316859195417064 -0.0059622956620116   T   T   T
  0.5112229333399977  0.0007226093392900  0.5035179086160543   T   T   T
  0.4910263059421986  0.9164528135446043  0.2309128094408393   T   T   T
  0.4940950549632147  0.0908126489283551  0.7730198645640400   T   T   T
  0.5113600142401772  0.4961161940040198  0.0002824046143865   T   T   T
  0.0114766816187136  0.4967916026370686  0.4975843018217447   T   T   T
 -0.0338909653500007  0.4226167961974723  0.2373126940592762   T   T   T
  1.0431302193592871  0.5862730779706050  0.7755868095366324   T   T   T
  0.2772381109923815  0.8859228283110273  0.3759582273481172   T   T   T
  0.7450113957245510  0.1118570224389585  0.6358360622587174   T   T   T
  0.7303544412615534  0.8768117284188307  0.3612091824270012   T   T   T
  0.2719646415207839  0.1272415153806905  0.6214474032028701   T   T   T
  0.5060079554690389  0.8904012811753040  0.6422232895857231   T   T   T
  0.5226562517307887  0.1095612189915093  0.3735998237234901   T   T   T
  0.7222751692153330  0.9710353153450747  0.0862254719382564   T   T   T
  0.2113665048742057  0.0651722443545786  0.8939504423708780   T   T   T
  0.4495687654886469  0.7183776007092220  0.1085790722827996   T   T   T
  0.5732650796161285  0.2660985728197326  0.9053855608677031   T   T   T
  0.2197116866185482  0.9880057117029346  0.1502543803308703   T   T   T
  0.7455560195255587  0.3975135078406022  0.3813090355288652   T   T   T
  0.2552564816968823  0.6036957364817799  0.6222558064842293   T   T   T
  0.2000840660429190  0.3508457001795374  0.3446881153107484   T   T   T
 -0.0346780288900187  0.3975115722165166  0.6299773937684472   T   T   T
  1.0037920291563212  0.6324178553462886  0.3980317942243246   T   T   T
  0.1816633401356352  0.4322416339493421  0.1018244990694967   T   T   T
  0.8168463096062196  0.5638266560402153  0.9033176386219149   T   T   T
  0.9856599082450039  0.7922414486087737  0.8330439592806074   T   T   T
  0.3275656592211619  0.5036791521465617  0.8443419637753167   T   T   T
  0.6946056654957535  0.4834438790575909  0.1550178272007421   T   T   T
