Sr Co O 
 1.0000000000000000
    -4.7481579598069361    2.7342224069795584    0.7423242261124838
    -4.7569583284162933   -8.1937537650287275    0.7508799422419873
     3.1558382426843679    2.6994336537671844    8.6782707469003046
 Sr  Co  O  
   8   8  21
Selective dynamics
Direct
 -0.0148854708509051  0.3046938537868643  0.8635247669417004   T   T   T
  0.9978576746013261  0.7260691305114509  0.1415955409779828   T   T   T
  0.0029912101833353  0.1236354272973643  0.3686412511771127   T   T   T
  1.0159968603382803  0.8480059487188230  0.6072134344569080   T   T   T
  0.4929322977361181  0.7766128765676950  0.8623667613316064   T   T   T
  0.5006409267781827  0.2010296699913133  0.1532309088030861   T   T   T
  0.5176818049244831  0.6337720859037150  0.3844288737968005   T   T   T
  0.5223908104412283  0.3804818673673179  0.5951592493464121   T   T   T
  0.0082447110067994 -0.0073569261113226  0.0004300263601808   T   T   T
  0.5361387811516135  0.0038560220577132  0.5174046950909305   T   T   T
  0.5015561708037858  0.9104754690630539  0.2458670231509398   T   T   T
  0.4710102800031556  0.1015311327805098  0.7851210692167619   T   T   T
  0.5128152905949707  0.5073510783790520 -0.0099886810465234   T   T   T
  0.0176276243531159  0.4903368850197531  0.4871954361585782   T   T   T
 -0.0134454971339900  0.4028283475531587  0.2207512675063210   T   T   T
  1.0030664265408862  0.5853127462676441  0.7586244355886695   T   T   T
  0.2886983175655329  0.8899103368489912  0.3977989996165658   T   T   T
  0.6963001558589614  0.1520471375072534  0.6685603060072890   T   T   T
  0.7543397084509407  0.8791116162237965  0.3776774476392252   T   T   T
  0.5287686240394927  0.9069464073720533  0.6578253952586101   T   T   T
  0.5162532483181109  0.1133330095232928  0.3875841277115032   T   T   T
  0.7258077344197925  0.9529171921361511  0.1112754598936809   T   T   T
  0.1987955108841024  0.0374452943348742  0.8452034593168465   T   T   T
  0.4766411806098952  0.6976379068177245  0.1421844330748239   T   T   T
  0.4509805858930108  0.2894079767711717  0.9217933182786787   T   T   T
  0.2428282973438368  0.9649557571229906  0.1419396406986610   T   T   T
  0.7630841898050006  0.3747958933861942  0.3707667522061098   T   T   T
  0.2475386715644947  0.6147097881313244  0.6247838155927223   T   T   T
  0.2341381879438345  0.3647096414676551  0.3464896123415122   T   T   T
  0.7910607136778944  0.6145125130222444  0.6102596033890648   T   T   T
  0.0321399946110031  0.3795606029869718  0.6191306471980146   T   T   T
  1.0267346267967106  0.6028521209352323  0.3571182683445316   T   T   T
  0.7237638000656245  0.5340389091345350  0.8439304239164114   T   T   T
 -0.0343842199900201  0.2013571956290026  0.0892232640224300   T   T   T
  0.9728940379697792  0.7996767928930301  0.8665947957520908   T   T   T
  0.2180624534504489  0.5496593180159968  0.9038230225764307   T   T   T
  0.7912842199983033  0.4721290096325467  0.1031709598740122   T   T   T
