Sr Co O 
 1.0000000000000000
    -0.0167101744497791    5.4754063194047706    0.1020191108768833
     9.5684139980315290   -0.0318917685600528   -1.4136645956972242
    -3.2671812688762554   -2.8982420445275663   -8.7598262009389352
 Sr  Co  O  
   8   8  20
Selective dynamics
Direct
  0.5544356228509436  0.8560402537175181  0.1314181726268312   T   T   T
  0.9264252709317979  0.6453389720704410  0.8403960440995817   T   T   T
  0.7904328818447530  0.9513234655066752  0.6118551568680167   T   T   T
  0.6832473172747250  0.5460482666258396  0.4063764618123231   T   T   T
  0.0734343930603006  0.3511245359930586  0.1581716254952673   T   T   T
  0.4253452531839957  0.1498933697180237  0.8528225983442936   T   T   T
  0.3023513454626574  0.4328392989239969  0.6230049568154763   T   T   T
  0.1968320021204967  0.0840981576728553  0.4030427494583599   T   T   T
  0.0044074886989198  0.0014646359202485  0.0020601049540714   T   T   T
  0.7525000376530863  0.2476505374270200  0.5050764398353524   T   T   T
  0.9096217852751604  0.2917982832095863  0.7743847156910932   T   T   T
  0.6401741377328943  0.2023975894627564  0.2369654406045424   T   T   T
  0.5114172523257320  0.5043717216472137  0.0156656984901832   T   T   T
  0.2277821949208546  0.7552130072524224  0.4962705311637574   T   T   T
  0.3611445553854548  0.7949911846792448  0.7649880929854564   T   T   T
  0.1120466996301141  0.6930529218050617  0.1989183497344005   T   T   T
  0.8177123805203644  0.4230609969000349  0.6460647717812058   T   T   T
  0.6762030509930013  0.0685569591158407  0.3627254574604110   T   T   T
  0.0482204047011078  0.1790935184103952  0.6223418685936596   T   T   T
  0.4500056987220853  0.2992195440380683  0.3658555543030035   T   T   T
  0.9430645586791379  0.3158985713393643  0.3970297563665657   T   T   T
  0.5838916614129086  0.1992414606942952  0.6379967557908022   T   T   T
  0.9356892922241257  0.1618839789547806  0.9018639709697297   T   T   T
  0.5576190188559100  0.3223013549958489  0.1104066980976457   T   T   T
  0.2370211121688728  0.3971343165954228  0.8676076531036205   T   T   T
  0.8366783479111291  0.0856416612798234  0.1316040390159909   T   T   T
  0.3401222306933565  0.9286421536912937  0.6446490238059397   T   T   T
  0.1012946030116423  0.5947216809046296  0.3444622165937644   T   T   T
  0.5276840937978159  0.6838371990163101  0.6370161200400990   T   T   T
  0.3365512778380159  0.8305193144666735  0.3650777369305913   T   T   T
  0.0174819114498484  0.7130507347860418  0.6041180767676247   T   T   T
  0.4296558205441888  0.6699915066280069  0.8848818957769348   T   T   T
  0.0192167305409495  0.8315205696895002  0.0826373402971016   T   T   T
  0.8636221796306914  0.5479134508487814  0.0490569251173853   T   T   T
  0.4268444596798000  0.6163925189709917  0.1695356464426233   T   T   T
  0.2324731780209298  0.9313823133265010  0.9009515384723148   T   T   T
