Sr Co O 
 1.0000000000000000
    -4.7638172227027917    2.7608470572711412    0.8463644313822749
    -4.6845466600592616   -8.2398522690401244    0.8643764009814803
     2.9331713360905343    2.7548524780537034    8.7075753948342562
 Sr  Co  O  
   8   8  20
Selective dynamics
Direct
  0.0011475025956454  0.2902464270750935  0.8843151586100209   T   T   T
  0.9837034755504975  0.6804158198150998  0.1330397634961829   T   T   T
  0.0242728613449188  0.1356779629103150  0.3793788360060125   T   T   T
  1.0059645659474681  0.8797176752596718  0.6100267471943746   T   T   T
  0.4960614638326285  0.7818758269097470  0.8615549644449531   T   T   T
  0.4978078309955287  0.2296048134971206  0.1307114619315085   T   T   T
  0.4815020394602605  0.5966222972088134  0.3675550403197877   T   T   T
  0.5019903414490510  0.3895969689336099  0.6335372442621909   T   T   T
  0.0230293862355460  0.0036940117734066 -0.0111976316484969   T   T   T
  0.5232040058587729  0.0149741738483099  0.4906629124449851   T   T   T
  0.4708578412208954  0.8824686962358109  0.2234845492185851   T   T   T
  0.5097289996778438  0.0961964302224366  0.7616748469035636   T   T   T
  0.4951215804794695  0.4916187563490553 -0.0071771220625125   T   T   T
 -0.0083601329637983  0.5182105758835863  0.5111219204332628   T   T   T
 -0.0142599918497625  0.4068006244204712  0.2444193068603142   T   T   T
  0.9954685537672042  0.6060634516051250  0.7828737259145880   T   T   T
  0.2964388445419508  0.8769881653489414  0.3995305231869801   T   T   T
  0.7498115857628678  0.1269848234206230  0.6128756381027124   T   T   T
  0.7497615158962341  0.9208604639093761  0.3436561048018041   T   T   T
  0.2934283374584142  0.1352703997647671  0.6116906767230127   T   T   T
  0.2557223780359091  0.0054683203884020  0.8307129313259184   T   T   T
  0.5114295400517266  0.6988082321761039  0.0934703604711914   T   T   T
  0.4853960414136519  0.2880082770429683  0.8937669668309037   T   T   T
  0.7418888622652900  0.0147469349831657  0.8510267622536097   T   T   T
  0.3000843297457800  0.9960247048706843  0.1418143430633807   T   T   T
  0.7644924769728959  0.3775086183074730  0.3977568877566169   T   T   T
  0.2229116912951625  0.6348953932789543  0.6363723842373192   T   T   T
  0.2224506068130977  0.3794120458275181  0.3887484586687730   T   T   T
  0.7655661998809759  0.6379905163904754  0.6440760366234294   T   T   T
  0.9786885141564797  0.6136411696223691  0.3678560441960533   T   T   T
  0.2394785438291204  0.4549327403308936  0.1286070194928356   T   T   T
  0.7578689454225656  0.5058454398879211  0.8545383982209629   T   T   T
 -0.0384647615195956  0.1924084262535034  0.1228118138216211   T   T   T
  0.9713397600350077  0.8041641500275188  0.9387360880229931   T   T   T
  0.2427823138071062  0.5199760846770932  0.8590887899717942   T   T   T
  0.7365345224703769  0.4561307620660434  0.1315822362205975   T   T   T
