Sr Co O 
 1.0000000000000000
     0.0700151071292029    5.5345150219242472   -0.1040524056867967
     9.4692565415892851    0.0948705716754514   -1.6108266003331391
    -3.0985490812252547   -2.6472091141726879   -8.7466683910640395
 Sr  Co  O  
   8   8  20
Selective dynamics
Direct
  0.5931288144499850  0.8443681821481018  0.1446219018322841   T   T   T
  0.9082544438045039  0.6626167309312466  0.8566527496919011   T   T   T
  0.7759465205574316  0.9219191784416119  0.5921632187990695   T   T   T
  0.6915414804581090  0.5694208831154296  0.3908840984371418   T   T   T
  0.0837712785453897  0.3675969534862555  0.1542738629755452   T   T   T
  0.4543923324065942  0.1375534095410653  0.8858996568284995   T   T   T
  0.2836131882019279  0.4567022461238839  0.6005064182822558   T   T   T
  0.1807907101947326  0.0590908060459992  0.3373724433010551   T   T   T
  0.0043477676351606 -0.0096370107400022 -0.0026225325210307   T   T   T
  0.7436012842871346  0.2509408657888045  0.5084362355865286   T   T   T
  0.8634740084099055  0.3216599114191079  0.7922054026369946   T   T   T
  0.6267367740362851  0.1985910833871574  0.2415845863806819   T   T   T
  0.5007488341752891  0.5083479103970330 -0.0033674580247383   T   T   T
  0.2373695046924020  0.7495747699702682  0.4911517338343675   T   T   T
  0.3560836567540404  0.7987594512750974  0.7697043152474511   T   T   T
  0.1332944264997694  0.7009408819390764  0.2285205879248086   T   T   T
  0.8183031506283763  0.4278883561911139  0.6339156307124479   T   T   T
  0.7220163080131221  0.0708050911442668  0.3977876636792398   T   T   T
  0.4376882620508267  0.3052975510708484  0.3647574655265924   T   T   T
  0.9070842650020015  0.3089024654409603  0.3730935572307359   T   T   T
  0.6391319866850815  0.1814643606575024  0.6608327757242030   T   T   T
  0.1844108147727183  0.3540993634116025  0.8925515576505514   T   T   T
  0.3345865004869328  0.1155373183745680  0.1159757013116753   T   T   T
  0.8327167194415034  0.1186706902492562  0.1162842034189180   T   T   T
  0.6980549301320418  0.3589319816438458  0.9378596139739885   T   T   T
  0.1690708311535679  0.5713541297331153  0.3692821601037001   T   T   T
  0.5284296191829331  0.7114597041073697  0.6268577208304118   T   T   T
  0.9589600157336231  0.8126062191166510  0.3593831031277517   T   T   T
  0.4201763422801528  0.8048272147915206  0.3700756114189712   T   T   T
  0.0648864502155480  0.7127857434476477  0.6235045792959396   T   T   T
  0.3917764069514650  0.6235438159938831  0.8535793372873043   T   T   T
  0.1169761771779284  0.8394484686187738  0.1062097927318703   T   T   T
  0.6529615610419917  0.8951587998280163  0.8812902230792263   T   T   T
  0.8355510337825591  0.6106294385892621  0.1027264594346434   T   T   T
  0.3640246115043372  0.5770424954963665  0.1468967568658070   T   T   T
  0.1354494559718240  0.9394504467653745  0.8298489750430814   T   T   T
