Sr Co O 
 1.0000000000000000
     0.1026016505972489    5.5330028022828062   -0.0577533327374915
    -9.3936046746862001   -0.1437911530541781    1.7299308953721393
    -1.8705121445407660   -0.0793930048088176    9.7528273032167565
 Sr  Co  O  
   8   8  20
Selective dynamics
Direct
 -0.0160963912455589  0.7354991537983004  0.8631448630696951   T   T   T
  0.0233725125646327  0.2660712653824632  0.1542997613495841   T   T   T
  0.0129876781633197  0.8510571913134172  0.3562477196566162   T   T   T
 -0.0156104450853739  0.1428010651570249  0.6321657431711126   T   T   T
  0.4911446163438493  0.2169729416192910  0.8583181779053192   T   T   T
  0.5068066289262394  0.8025783786271747  0.1389926389763514   T   T   T
  0.4808884946308192  0.3667293412318621  0.4057931116390379   T   T   T
  0.5211557675722065  0.6181807453946347  0.5888836727651371   T   T   T
  0.0007217380314241  0.0108185339657458 -0.0004257782852283   T   T   T
 -0.0040865129711486  0.4945726330028924  0.4929138740511527   T   T   T
 -0.0087656786476465  0.5831802469823566  0.2284282167965935   T   T   T
 -0.0199417714363023  0.4222680196645157  0.7560407779866368   T   T   T
  0.5739352097304311  0.5010003297483233  0.0019783762684907   T   T   T
  0.4897366878379454 -0.0145217826058367  0.5094698439746829   T   T   T
  0.4935967496329621  0.0880237034896985  0.2355372481816616   T   T   T
  0.4941389084189168  0.9118993795583462  0.7849794598516313   T   T   T
 -0.0094695886061083  0.3758860617930648  0.3710102712534638   T   T   T
  0.0165039091230643  0.6185639427644277  0.6130350128158428   T   T   T
  0.2346623806441936  0.6143710057107972  0.3577550113937658   T   T   T
  0.7534529656817508  0.3716502220341351  0.6153904329327547   T   T   T
  0.2258036527921347  0.3782628657008342  0.6344427893094002   T   T   T
  0.7544974817766217  0.6130088460062797  0.3652102536733017   T   T   T
 -0.0091590277151293  0.7842544611548665  0.1094587770015133   T   T   T
  0.0316410279049553  0.2464711666636102  0.9028856944439401   T   T   T
  0.6952761352314342  0.4753451567250185  0.8375377418878016   T   T   T
  0.8879436146046567  0.5225918726749033  0.0816783690670160   T   T   T
  0.5196650065630115  0.8824267435357561  0.3887805442928267   T   T   T
  0.4846867313445994  0.1038379813754665  0.6157151207755073   T   T   T
  0.6873614089414675  0.8602520994802465  0.6538180242559626   T   T   T
  0.2669384781370217  0.1013289349580572  0.3767002853087130   T   T   T
  0.4820853336893092  0.3137822498186050  0.1394735747302799   T   T   T
  0.4593408932303091  0.6986490719310909  0.9292484226635926   T   T   T
  0.7630183052053163  0.0489285294117023  0.1545950749367977   T   T   T
  0.2238713935163787  0.9728270595859044  0.8470856066604755   T   T   T
  0.7444409000335139  0.9942950620470282  0.8810181252702154   T   T   T
  0.2574548494569726  0.0261358394509191  0.1183931509220596   T   T   T
