Sr Co O 
 1.0000000000000000
     4.8200521524200406   -2.7745280280800859   -0.6801625435598074
    -4.8302596934277089   -2.7616346933864500    0.6681571316534640
     2.7863808054491215   -0.0090379688632378  -19.1793966862059300
 Sr  Co  O  
   8   8  20
Selective dynamics
Direct
  0.2820371826418130  0.7686095268908383  0.5894382468360906   T   T   T
  0.6924333209811349  0.2687280221858274  0.9278332115910353   T   T   T
  0.1330362267342096  0.8839049677705598  0.8055555846208315   T   T   T
  0.8567155208330678  0.1565037987503935  0.7048815159441741   T   T   T
  0.2413454800258704  0.6464069468383333  0.0585288713677520   T   T   T
  0.7363169526481455  0.3409410342307526  0.4442449271461231   T   T   T
  0.1625080567911387  0.8773299767072522  0.3115997705333011   T   T   T
  0.8671604540728769  0.0367671399623273  0.1656854233573936   T   T   T
 -0.0021680557541022 -0.0252660107519002 -0.0024644910254022   T   T   T
  0.5041944897798371  0.5208506878306607  0.7527196032108188   T   T   T
  0.3669902815358491  0.5718359003844038  0.8811202994874875   T   T   T
  0.6254335384392335  0.4713301725261736  0.6219608720566121   T   T   T
 -0.0167157052745820  0.0506064032409842  0.5056487048086539   T   T   T
  0.5622749330253139  0.4610201643379161  0.2462881622815106   T   T   T
  0.4501097174924840  0.6218274376361740  0.4060936787566361   T   T   T
  0.5812679689567708  0.3320112316645394  0.1078816862182367   T   T   T
  0.5799231493252284  0.3897235983789680  0.8232692999531931   T   T   T
  0.4314925255794611  0.6579397836362655  0.6828430997717053   T   T   T
  0.1353656107546119  0.3967268569097376  0.8025848905583146   T   T   T
  0.8716958144413629  0.6387416580548361  0.7004184171673465   T   T   T
  0.3891442058592774  0.1895205016546458  0.6855516193437673   T   T   T
  0.6129461796500966  0.8566797091352456  0.8224346846615671   T   T   T
  0.1797688458055284  0.7944202276551441  0.9322344185394446   T   T   T
  0.7389709183047232  0.2254259205422252  0.5609137741553283   T   T   T
  0.1761066664852640  0.3037881992268368  0.9417153689374317   T   T   T
  0.8598660757552640  0.7835833510948875  0.5647269135071979   T   T   T
  0.5547450096394291  0.3724304257531713  0.3366690029568227   T   T   T
  0.8734375303079711  0.5022832926323160  0.1699867494800074   T   T   T
  0.3418754641330959  0.1186270901521852  0.1907209259089097   T   T   T
  0.5615123310063925  0.7869022980883054  0.2676501752026286   T   T   T
  0.2204947195977675  0.7660497675657342  0.4226281987690595   T   T   T
  0.7151373799783324  0.0692591693783204  0.0413879036435806   T   T   T
  0.3062018657407273  0.3906097866403725  0.4867406903536431   T   T   T
  0.7796961543483891  0.6411827910181556  0.0550777305924330   T   T   T
  0.2632071161328546  0.2066386389134695  0.0682014976426523   T   T   T
  0.8164716409905748  0.9270597399884212  0.4185785085624713   T   T   T
