Sr Co O 
 1.0000000000000000
    -4.8008603946511794    2.7990815153281292    0.7426551829097842
    -4.7120868371595108   -8.2497031077281591    0.7150173697715687
     3.2269711509155163    2.7539333749981032    8.6585370249446552
 Sr  Co  O  
   8   8  20
Selective dynamics
Direct
 -0.0158926616831080  0.2882868385581482  0.8379426406328790   T   T   T
  0.9823460661480737  0.6969024545384954  0.1482123210811620   T   T   T
 -0.0157202569797039  0.1276186895795118  0.4099791850110630   T   T   T
  1.0088322490799984  0.8495883046187002  0.5944020839293779   T   T   T
  0.5135259413187452  0.7626470486758535  0.8350355385651694   T   T   T
  0.4840203518842867  0.2221852757920059  0.1529835772261600   T   T   T
  0.5122748717148773  0.6235154973222460  0.4081076398149987   T   T   T
  0.4942126763613125  0.3533294017912403  0.5908295938875140   T   T   T
 -0.0748021728038034 -0.0035637298029805 -0.0090660419001098   T   T   T
  0.4955743631649502 -0.0097773800482055  0.4976141870304990   T   T   T
  0.5184802927415613  0.9023601411106823  0.2378493405190878   T   T   T
  0.4748028769908947  0.0854515876037240  0.7663016737354432   T   T   T
  0.5222953575766129  0.4781029601963016 -0.0306913365326310   T   T   T
  0.0055540669884244  0.4882910707828697  0.4988653782627818   T   T   T
 -0.0303728568121588  0.3929501297687290  0.2305105885196540   T   T   T
  1.0220432189136961  0.5985589729021660  0.7734163245228045   T   T   T
  0.2766515108347595  0.8547755619416529  0.3419220109484858   T   T   T
  0.7206445921341340  0.1228554739695963  0.6305280984769851   T   T   T
  0.7400811995416833  0.8651476789509401  0.3831926145768791   T   T   T
  0.2500624788948608  0.1050462632815666  0.6215267212390785   T   T   T
  0.4853778156505592  0.8820912369490961  0.6290617534161134   T   T   T
  0.4860116344479470  0.1059606189538768  0.3668808714769226   T   T   T
  0.7412681882246690  0.9041576490744613  0.1078448083935802   T   T   T
  0.4135868120734931  0.2799223823313076  0.8979910630519020   T   T   T
  0.6270724623598756  0.0359790315334587  0.9107809316759171   T   T   T
  0.7533939614799458  0.3661342047045082  0.3834979195235471   T   T   T
  0.2493380652715432  0.6059462985150400  0.6262131531765057   T   T   T
  0.2176779717049781  0.3609512299800561  0.3591945488477763   T   T   T
  0.7939861136986529  0.6206749899036514  0.6295074456515368   T   T   T
  0.0143966136575735  0.3904922467284250  0.6399038331004318   T   T   T
  1.0112736198764722  0.5937400659465012  0.3615643948979241   T   T   T
  0.7685618583942045  0.5601024699221859  0.8926053916999032   T   T   T
  0.0177101900648239  0.1958664880885058  0.0887171879631331   T   T   T
  1.0560716808008077  0.8253489894805781  0.8670774049352546   T   T   T
  0.2584410981358904  0.5773296340038874  0.9286565246876147   T   T   T
  0.7022175419779769  0.4640301498410832  0.1350402333773497   T   T   T
