Sr Co O 
 1.0000000000000000
     0.0918127440675103    5.4678983319807957    0.1059211609268395
    -9.7789749519673297   -0.1660093715631040    1.2523749641438362
    -1.2692181654942958    0.1974021457335717    9.4137463037390052
 Sr  Co  O  
   8   8  20
Selective dynamics
Direct
 -0.0135204727068155  0.7338322130655915  0.8554438026751666   T   T   T
  0.0166720345233116  0.2700693898997639  0.1323121610232086   T   T   T
 -0.0310822177338746  0.8697123276846532  0.3707486699554083   T   T   T
 -0.0091571954903833  0.1424431949261554  0.6402370836158748   T   T   T
  0.4920990853470563  0.2071353502986165  0.8573578841225302   T   T   T
  0.4753586727961543  0.8119154845436415  0.1029600034408836   T   T   T
  0.4788618575470280  0.3501696992362779  0.4054104085773892   T   T   T
  0.5214965756992945  0.6055204222597173  0.6557788567335339   T   T   T
 -0.0076007186250165  0.0141593275434823 -0.0084066498255738   T   T   T
 -0.0053548949110525  0.4990597085185342  0.5160168135699833   T   T   T
 -0.1138354992097514  0.5845501646827644  0.2374325422075889   T   T   T
  0.0242047679795480  0.4145248282320351  0.7843179504512993   T   T   T
  0.5321341926590143  0.4644745838330108  0.0232878380786389   T   T   T
  0.4811573121365154 -0.0041178756304565  0.4950772588157867   T   T   T
  0.4814000568846168  0.0793422986323819  0.2325181686276001   T   T   T
  0.5036610189518952  0.9220162028559763  0.7574593412047121   T   T   T
 -0.0045758479972878  0.4105513884901244  0.3507844545353433   T   T   T
  0.0492809671525637  0.6069043772155182  0.6553328984192165   T   T   T
  0.7599303239121940  0.3833547738323237  0.6654605560563644   T   T   T
  0.2292919487904625  0.3814608874911923  0.6190948486356089   T   T   T
  0.7775019612486058  0.6259149100479100  0.4179734740241200   T   T   T
  0.0134706869415177  0.7481083224495372  0.1248688698179440   T   T   T
 -0.0104873896004262  0.2219662972162524  0.8820962957052746   T   T   T
  0.8457728478254433  0.4770901827827176  0.9343020704316148   T   T   T
  0.3174221784430977  0.4334970809844043  0.8948959941950865   T   T   T
  0.5643369673094181  0.5533926726437939  0.1719995007146720   T   T   T
  0.5172863527755461  0.1124759233256180  0.6170310936919445   T   T   T
  0.4530601187486125  0.8882048447680473  0.3640583020424968   T   T   T
  0.7223777766004478  0.8893915638107609  0.6009095581327041   T   T   T
  0.2449273549550068  0.1071235085727514  0.3916094009680223   T   T   T
  0.5301530717262189  0.2751996391580919  0.1638728440220568   T   T   T
  0.4736300205841394  0.7363485498961214  0.8542851487626406   T   T   T
  0.7842519898205129  0.0339151810748156  0.1612895004139537   T   T   T
  0.2079406669774989  0.9706651949482044  0.8352095340454493   T   T   T
  0.7326441204663223  0.9719826323341205  0.8923196295438086   T   T   T
  0.2602887751598876  0.0426447031968238  0.0932536144675844   T   T   T
