Sr Co O 
 1.0000000000000000
     4.6588628535353589   -2.9003892106987896   -0.7358910699930089
     4.4224131345039810    8.3079481258154022   -0.8939613702011319
    -1.6473343118880310   -0.1555105424151536    9.6856373011414245
 Sr  Co  O  
   8   8  20
Selective dynamics
Direct
  0.4430597455137484  0.1213411716994154  0.8466580020189228   T   T   T
  0.0543458168760863  0.3462423999805397  0.1296976464630227   T   T   T
  0.2104610074452283  0.0572456171366943  0.3996412782559187   T   T   T
  0.3736391917240496  0.4229605384450402  0.6328135550640416   T   T   T
  0.9456541831239126  0.6537576000194598  0.8703023535369735   T   T   T
  0.5569402544862506  0.8786588283005843  0.1533419979810736   T   T   T
  0.6263608082759489  0.5770394615549589  0.3671864449359544   T   T   T
  0.7895389925547700  0.9427543828633043  0.6003587217440777   T   T   T
  0.0000000000000000  0.0000000000000001 -0.0000000000000000   T   T   T
  0.7761035607719774  0.2600742661948127  0.5100703646288879   T   T   T
  0.5865935410338435  0.2137460037472926  0.2204672632913062   T   T   T
  0.8961508731138506  0.2911740666698089  0.7719057363268147   T   T   T
  0.4999999999999984  0.4999999999999995 -0.0000000000000003   T   T   T
  0.2238964392280208  0.7399257338051860  0.4899296353711080   T   T   T
  0.1038491268861479  0.7088259333301908  0.2280942636731814   T   T   T
  0.4134064589661553  0.7862539962527073  0.7795327367086897   T   T   T
  0.5776411254188564  0.1744010871400081  0.6298573413366082   T   T   T
  0.4988748562078705  0.3220710149465604  0.3879924915799700   T   T   T
  0.0676781330795686  0.2034434898886283  0.6283715548205339   T   T   T
  0.8616644611261851  0.4363292469581131  0.6544125954613813   T   T   T
  0.7469148380427413  0.1035261164253257  0.3599261002822381   T   T   T
  0.2547497543250540  0.0978904016553036  0.1598187634422596   T   T   T
  0.5607953228667829  0.3864345087383986  0.1401167402810434   T   T   T
  1.0276703745423865  0.1749011182348848  0.8930764960456866   T   T   T
  0.7228451808918661  0.4000293817768100  0.9045746154661348   T   T   T
  0.7362082873014741  0.1192008550012623  0.0902669116893387   T   T   T
  0.4223588745811430  0.8255989128599911  0.3701426586633880   T   T   T
  0.9323218669204313  0.7965565101113712  0.3716284451794634   T   T   T
  0.5011251437921279  0.6779289850534399  0.6120075084200257   T   T   T
  0.2530851619572560  0.8964738835746738  0.6400738997177573   T   T   T
  0.1383355388738149  0.5636707530418869  0.3455874045386150   T   T   T
  0.7452502456749445  0.9021095983446963  0.8401812365577366   T   T   T
 -0.0276703745423890  0.8250988817651144  0.1069235039543096   T   T   T
  0.4392046771332180  0.6135654912616012  0.8598832597189521   T   T   T
  0.2637917126985245  0.8807991449987377  0.9097330883106569   T   T   T
  0.2771548191081319  0.5999706182231891  0.0954253845338602   T   T   T
