Sr Co O 
 1.0000000000000000
     4.7546729852999734   -2.7461153756726788   -0.7497373155601621
     4.8618750601688543    8.4622840044866550   -0.3285357638789602
    -1.3748852825354603    0.3887026611358975    9.3144120833398869
 Sr  Co  O  
   8   8  20
Selective dynamics
Direct
  0.4439464096865195  0.1527591448796078  0.8518905629223059   T   T   T
  0.0875080339649850  0.3250257766590327  0.1029448753478590   T   T   T
  0.2133028259320623  0.0892210985214708  0.3901445840745884   T   T   T
  0.3022925757895557  0.4185892221401105  0.5911583400134417   T   T   T
  0.9324625381699577  0.6061646736644889  0.8415450709386976   T   T   T
  0.6231718231701158  0.8805064386065934  0.1754682448876247   T   T   T
  0.6714167194518530  0.5379072846240615  0.3446325452305874   T   T   T
  0.8128680128714869  0.9683494925521855  0.6382514554818174   T   T   T
  0.0186558381425570 -0.0100994108893180  0.0068855514545148   T   T   T
  0.7524807295124143  0.2543631105670757  0.4850745320027763   T   T   T
  0.6432806035764993  0.1947276866812219  0.2227315877719282   T   T   T
  0.8927924063917164  0.2933936187790875  0.7547615245273013   T   T   T
  0.4959231901225198  0.5073701413378248 -0.0390782842490192   T   T   T
  0.1627195051569149  0.7615033902990308  0.4845008779220237   T   T   T
  0.1145402610729714  0.6765755583517313  0.1922759489509439   T   T   T
  0.3917025674756513  0.8139949860824077  0.7973256777935510   T   T   T
  0.9127631564601502  0.3108781671211461  0.3416582109876187   T   T   T
  0.5880253469175524  0.2068828141963688  0.6257334780606038   T   T   T
  0.4535851771413482  0.3026998682548745  0.3379320954956305   T   T   T
  0.0523150331202596  0.2018856062452725  0.6187306522792358   T   T   T
  0.8118207481305509  0.4319852652126484  0.6029316865093366   T   T   T
  0.7050197340146883  0.0717916001261310  0.3932867999401836   T   T   T
  0.3672155896041623  0.1073958672552055  0.0993546580698600   T   T   T
  0.2101701498761168  0.3818174766167668  0.8637517132529523   T   T   T
  0.9527524597251456  0.1391309432648021  0.8672282916541447   T   T   T
  0.7155356664609052  0.3857838257036153  0.8930172844273926   T   T   T
  0.8752137331197687  0.1043257098616121  0.1400063845065447   T   T   T
  0.3305285730350188  0.9069094234194803  0.6065604567990820   T   T   T
  0.8274248571016265  0.7758694151705536  0.4378595488720328   T   T   T
  0.2404491336981327  0.6031932213567841  0.3918923326941123   T   T   T
  0.7845950030153722  0.6167221138428600  0.0996918150080054   T   T   T
  0.6571032698356902  0.9112277671863317  0.9089575055008907   T   T   T
  0.1471766258179359  0.8642493186920137  0.1944640221215373   T   T   T
  0.4128316076095703  0.6260514141024758  0.7801650819685249   T   T   T
  0.1110436934625513  0.8540844584623614  0.8627121463727864   T   T   T
  0.3083660096992561  0.5657636380778549  0.0969528658454396   T   T   T
