Sr Co O 
 1.0000000000000000
     0.0000000000000000    5.4490262482134346    0.0000000000000000
   -10.0145735482984559   -0.0000000000000000    1.0791045671010828
    -1.1151281594227653    0.0000000000000001    9.5393750305125220
 Sr  Co  O  
   8   8  20
Selective dynamics
Direct
  0.0007558448685152  0.7249921602615268  0.8459149567400021   T   T   T
  0.0007558448685152  0.2750078697384735  0.1540850432599990   T   T   T
  0.0215058985016339  0.9118807509405273  0.3607518777520584   T   T   T
  0.0215058985016339  0.0881192790594755  0.6392481222479439   T   T   T
  0.5141241595725171  0.1744820661074096  0.8879473934731856   T   T   T
  0.5141241595725170  0.8255179638925925  0.1120526065268168   T   T   T
  0.4973182339488612  0.3209446002934808  0.4134907185943236   T   T   T
  0.4973182339488614  0.6790554297065201  0.5865092814056797   T   T   T
  0.0143555603399435  0.0000000150000002 -0.0000000000000000   T   T   T
  0.0150836172940627  0.5000000149999997  0.5000000000000013   T   T   T
 -0.0272856241948864  0.6281425261981013  0.2283807898508123   T   T   T
 -0.0272856241948864  0.3718575038018997  0.7716192101491897   T   T   T
  0.5515341952340144  0.5000000150000006 -0.0000000000000000   T   T   T
  0.5243149023031901  0.0000000150000002  0.5000000000000008   T   T   T
  0.5133225990966226  0.0832554994039037  0.2410895447309473   T   T   T
  0.5133225990966228  0.9167445305960993  0.7589104552690542   T   T   T
 -0.0662219034754775  0.4471697282949554  0.3327194072743222   T   T   T
 -0.0662219034754775  0.5528303017050454  0.6672805927256791   T   T   T
  0.1291201642452371  0.6584412148170687  0.3955261545664242   T   T   T
  0.1291201642452371  0.3415588151829327  0.6044738454335777   T   T   T
  0.0417407607009489  0.8026740427647026  0.1448485334242372   T   T   T
  0.0417407607009489  0.1973259872352986  0.8551514665757651   T   T   T
  0.7768702142503743  0.3878416326458242  0.9191760836092132   T   T   T
  0.7768702142503743  0.6121583973541779  0.0808239163907878   T   T   T
  0.5321317590067416  0.8841719792026292  0.3634702431577576   T   T   T
  0.5321317590067416  0.1158280507973721  0.6365297568422439   T   T   T
  0.7499470894681693  0.1212936108017963  0.3775080116012857   T   T   T
  0.2845027916624063  0.8862722451855516  0.6160677736495239   T   T   T
  0.7499470894681702  0.8787064191982036  0.6224919883987167   T   T   T
  0.2845027916624063  0.1137277848144506  0.3839322263504786   T   T   T
  0.4305945682613772  0.3682804968264509  0.1440737606285233   T   T   T
  0.4305945682613770  0.6317195331735501  0.8559262393714788   T   T   T
  0.7588866792958135  0.0682514708244187  0.1095010114300598   T   T   T
  0.2630426289068001  0.9315806784422817  0.8861261112052420   T   T   T
  0.7588866792958135  0.9317485591755833  0.8904989885699400   T   T   T
  0.2630426289068001  0.0684193515577206  0.1138738887947588   T   T   T
