Sr Co O 
 1.0000000000000000
     4.7530230851248882   -2.7067925597255318   -0.6628077081401492
     4.8281617728236261    8.2399458802394889   -0.5919399179899413
    -1.3834509744627135    0.0573703647358513    9.5084160269787468
 Sr  Co  O  
   8   8  22
Selective dynamics
Direct
  0.4274696400645884  0.1306116577010464  0.8456764319040334   T   T   T
  0.0490211132108556  0.3538916174220189  0.1249050321612165   T   T   T
  0.1680898623461012  0.0401671607950900  0.3676986102782611   T   T   T
  0.3072389945577909  0.4591889798945299  0.6353193675755030   T   T   T
  0.9421897626498825  0.6653500885201907  0.8718516992858608   T   T   T
  0.5699910596738199  0.8399753126386931  0.1338768441910481   T   T   T
  0.7022771914494810  0.5794729919284799  0.3944466090869723   T   T   T
  0.7968267222180178  0.9349455840850589  0.6100812930494457   T   T   T
  0.0023922253792056 -0.0010928499225896 -0.0022309697312991   T   T   T
  0.7615390160868171  0.2518126153162321  0.4998974146721183   T   T   T
  0.6036288770338426  0.1933831126085292  0.2086317438511940   T   T   T
  0.9009720832360526  0.3007436303829394  0.7608468887285481   T   T   T
  0.4873897127213181  0.5042778085283671  0.0126210415015614   T   T   T
  0.2474834823157389  0.7515685679317420  0.5071744144213403   T   T   T
  0.1172942472423650  0.6928765400463988  0.2426484613587671   T   T   T
  0.3966364869352233  0.8010383516325883  0.7707699117869441   T   T   T
  0.8301656167499678  0.3172419724839892  0.3387305621457241   T   T   T
  0.6086432387050945  0.2040964415161612  0.6431212347307643   T   T   T
  0.0718537350666493  0.1982862803418150  0.5962801126567651   T   T   T
  0.7997635314263021  0.4278641997602451  0.6144482945148425   T   T   T
  0.6477076638528420  0.0909604320727479  0.3773077415749139   T   T   T
  0.2930961884781303  0.1222284219751995  0.1476903892755008   T   T   T
  0.1534496443511508  0.4228274816890904  0.8663725922222130   T   T   T
  0.5667879729249333  0.3226112162734759  0.0590304976521885   T   T   T
  0.9486963050386128  0.1747328606363299  0.8888615389661496   T   T   T
  0.8100724256711741  0.0668970822232440  0.1268798123375031   T   T   T
  0.4040709552939389  0.7997906743876528  0.3667976844306339   T   T   T
  0.0960096682486527  0.7060938668258270  0.6526815639006766   T   T   T
  0.9480866125787532  0.8034857315697829  0.3768568850853912   T   T   T
  0.5446507389815235  0.6993995206353154  0.6297061033363068   T   T   T
  0.3058240768148686  0.9276847893532608  0.6239291399502148   T   T   T
  0.1901646450250532  0.5719424121583130  0.3977172673802810   T   T   T
  0.8235361873296247  0.5872117691863931  0.1393378322069376   T   T   T
  0.7026009295427686  0.9008016453274014  0.8532879884804389   T   T   T
  0.0697104896167585  0.8234381105917710  0.1162478861644880   T   T   T
  0.4823168258741137  0.6417478990173249  0.8898446311292318   T   T   T
  0.2322011385824634  0.9100726197963791  0.8998436686794877   T   T   T
  0.3286503292412378  0.5758733264419095  0.1581113446252026   T   T   T
