Sr Co O 
 1.0000000000000000
     4.9439896102157865   -2.7376650118224850   -0.5529354044715780
    -4.9290805506297630   -2.7277553732817257    0.5120247108056494
     2.1734974665342395   -0.1359140693774473  -19.0069402899384556
 Sr  Co  O  
   8   8  20
Selective dynamics
Direct
  0.2634848631533974  0.7596594747491158  0.5900009427415408   T   T   T
  0.7096864296353459  0.2006795309889412  0.9228222240260019   T   T   T
  0.1182069534924276  0.8334386632429289  0.8016394568724011   T   T   T
  0.8480421933665523  0.1306814501726725  0.7023869635964037   T   T   T
  0.2632052503359417  0.6154927220306448  0.0629577044911164   T   T   T
  0.7372959510389234  0.3795910760899973  0.4564909011042377   T   T   T
  0.1933420150088017  0.9296973747183020  0.3270285842551305   T   T   T
  0.8794670108843896  0.0774677112875363  0.1723326117280037   T   T   T
  0.0196737592499257 -0.0978334097373941 -0.0064300866873200   T   T   T
  0.4778670338088507  0.4804410127053464  0.7534678575872958   T   T   T
  0.3715086595809858  0.5031790363083765  0.8819414861240610   T   T   T
  0.5808524529763547  0.4427428582188234  0.6224598201200169   T   T   T
 -0.0246299257847618  0.0694816598507239  0.5237883643665292   T   T   T
  0.5823589058928945  0.5387757169335866  0.2486542493144686   T   T   T
  0.5442013613885828  0.7445116305056443  0.3852125254385537   T   T   T
  0.5725364461826935  0.3268557758909429  0.1065753839274592   T   T   T
  0.5592834591118738  0.3309278780321851  0.8222331931085416   T   T   T
  0.4109425576542945  0.6364342807393734  0.6853310267690775   T   T   T
  0.1195371034527135  0.3639468100543089  0.8052625953319007   T   T   T
  0.8260368338589307  0.5879979235688757  0.6958119176508072   T   T   T
  0.3415192882531636  0.1554784939704966  0.6871414877402972   T   T   T
  0.6189418194240085  0.8041256190722305  0.8208283272171791   T   T   T
  0.2390242051217921  0.7168237673018023  0.9419126854105978   T   T   T
  0.7492329658871258  0.2238604772384311  0.5702850697353280   T   T   T
  0.1361698129344036  0.1651921379100429  0.9324128435638619   T   T   T
  0.8419272397690035  0.7486971739818217  0.5658242381390391   T   T   T
  0.3291106838010643  0.3220616540125619  0.5476225982977245   T   T   T
  0.5756423074628512  0.4288502890470631  0.3419494171221029   T   T   T
  0.3874023983255071  0.4946914844503942  0.1714031790136707   T   T   T
  0.8513457662297077  0.5143027937158019  0.1744664954896668   T   T   T
  0.6432192411607101  0.9040076936286443  0.2942436593363841   T   T   T
  0.7299265630354028  0.1210061028335257  0.0631875404594573   T   T   T
  0.2482141414594402  0.7669372014087259  0.4304968599328549   T   T   T
  0.7022221956192932  0.5809898099735210  0.0216626989049725   T   T   T
  0.2177888746792850  0.0527798654242059  0.0752903895221917   T   T   T
  0.8794129642894326  1.0000259651940826  0.4293048141139350   T   T   T
