Sr Co O 
 1.0000000000000000
    -4.7904923769647603    2.7680306968097743    0.7754791981345446
    -4.6896882580867931   -8.1877802037002372    0.7308291665811651
     3.1380719081633175    2.7677635375373359    8.9176088670565203
 Sr  Co  O  
   8   8  20
Selective dynamics
Direct
 -0.0193524205718460  0.2805649195737205  0.8504264274513336   T   T   T
  1.0168457497415655  0.7270360434750492  0.1055619874786349   T   T   T
 -0.0213572658031521  0.1313188718207863  0.4173245664611212   T   T   T
  0.9775702945071115  0.8721250094904174  0.6430029347867277   T   T   T
  0.4897367206762456  0.7873757642711163  0.8368269995590286   T   T   T
  0.5064998810882826  0.1915982828973123  0.1549735513491134   T   T   T
  0.5375395123745028  0.6279347486291271  0.3978905204326745   T   T   T
  0.4990767703589833  0.3818421446420608  0.6229067673889608   T   T   T
  0.0143755328741992  0.0043165257582351 -0.0010090069071839   T   T   T
  0.5016005317936316 -0.0038297498600527  0.5003859045106489   T   T   T
  0.5405005948253240  0.8997441538376474  0.2196779786722969   T   T   T
  0.4719615619612107  0.0813014689736716  0.7622518896753175   T   T   T
  0.5268446098198657  0.5456439277957824  0.0105447877958113   T   T   T
  0.0136426864704839  0.4910557198476771  0.4980438221210499   T   T   T
 -0.0262311513586040  0.3882680049346286  0.2151144377174304   T   T   T
  0.9962747092520493  0.5827389781301950  0.7643086126708604   T   T   T
  0.7048207952526484  0.1476224550589252  0.6527291716029822   T   T   T
  0.7454318811513915  0.8779428239863559  0.3747832930492069   T   T   T
  0.2452383561349390  0.1007204450100535  0.6203972397493386   T   T   T
  0.5095072906824603  0.8676529368305527  0.6077025242043231   T   T   T
  0.4476029026639337  0.0969197741742521  0.3703194542048727   T   T   T
  0.8289124513305733  0.9920755093122440  0.1574630658007936   T   T   T
  0.2089148760812259  0.0204140573292955  0.8473289053225609   T   T   T
  0.4299920418728129  0.6976016829683239  0.1793967133481209   T   T   T
  0.6880936081980882  0.0813988134962657  0.8993014047065124   T   T   T
  0.3324178065961235  0.9257993406485152  0.0861158033371325   T   T   T
  0.7762679053727877  0.3745043932320160  0.3717282186567828   T   T   T
  0.2286838124081793  0.6218074471967746  0.6322260180775159   T   T   T
  0.2328847057253041  0.4298236339171315  0.3467515149573884   T   T   T
  0.7770206334168165  0.6084841345887996  0.6205081129421098   T   T   T
  0.0284246465997133  0.3813039483611807  0.6302351139217679   T   T   T
  0.7305283262499711  0.5176932727314483  0.8575096696995871   T   T   T
  0.0866104853662339  0.2192978654102159  0.0842577974268932   T   T   T
  0.9453934575311285  0.7926934355072661  0.8805340266966164   T   T   T
  0.2435273070652322  0.5326770706995594  0.9006137683290160   T   T   T
  0.7663485996624415  0.4796822348467608  0.1231659755751064   T   T   T
