Sr Co O 
 1.0000000000000000
    -4.9164910018942667    2.8051991587056229    0.6904356978252844
    -4.8792376600912677   -8.3646421870358321    0.5455780235329727
     3.5388993207444854    2.9127120564037901    8.7733671010978309
 Sr  Co  O  
   8   8  20
Selective dynamics
Direct
  0.0128099579908631  0.3267571261383929  0.8490678425684298   T   T   T
  0.9843619104531286  0.7092198246207971  0.1192278804873648   T   T   T
  0.0436310648431035  0.1027533361528168  0.3932930024382827   T   T   T
  0.9986485895450450  0.8318092077284196  0.6021180519277942   T   T   T
  0.4485282321358229  0.7777432156603575  0.8946138427066865   T   T   T
  0.4527796238013632  0.1938508992087257  0.1588421736160111   T   T   T
  0.5072668729505280  0.6381518496934380  0.3550109922440169   T   T   T
  0.4942472239117743  0.4100836155761302  0.6235168323359944   T   T   T
 -0.0877625820075076  0.0026019637008864 -0.0060385265590707   T   T   T
  0.5705728862963810  0.0185088769977971  0.5250134514739685   T   T   T
  0.5415474261854372  0.9170903394073071  0.2481332057827610   T   T   T
  0.5691772143493723  0.1339448961252296  0.8068278790931070   T   T   T
  0.4961165063020171  0.5009576984356046 -0.0112381664858314   T   T   T
 -0.0089663920447429  0.4829969224803506  0.4797671175426425   T   T   T
  0.0119730072309460  0.3922086437475673  0.1845770757276269   T   T   T
  0.9816595200378101  0.5973488806383520  0.7531763369048404   T   T   T
  0.3151557967830098  0.9023367003923892  0.4904148294431059   T   T   T
  0.8139892804485216  0.0878524656944133  0.6713971977100354   T   T   T
  0.7713412239980600  0.8773185155915681  0.3789966529799876   T   T   T
  0.5202165490991719  0.1412905870229127  0.4166351244064079   T   T   T
  0.7870863553592777  0.9876037808229503  0.1591944551560480   T   T   T
  0.5286532595352860  0.7063380672130632  0.1359577571717981   T   T   T
  0.4456083989344753  0.3095037470266253  0.8199294746731187   T   T   T
  0.5862500406669828  0.0233965942187346  0.9155349761508236   T   T   T
  0.2760726602551521  0.9520887153076633  0.1613327572246105   T   T   T
  0.2288658288007892  0.6246561250368131  0.6375951774701553   T   T   T
  0.1462209206183218  0.3322315222198636  0.3346356938921478   T   T   T
  0.7597345892973102  0.6100726135434797  0.5952677478962271   T   T   T
 -0.0104337484562167  0.3832873628976380  0.6127995007553703   T   T   T
  0.9668615780039382  0.5786765051667304  0.3473877533254507   T   T   T
  0.3048419213817191  0.4509961229147197  0.1252703999935686   T   T   T
  0.7268795022021211  0.5629863046051043  0.8623488927582986   T   T   T
  0.0484587763991869  0.1844697309028542  0.0351472620096894   T   T   T
  0.9919102220827085  0.8188232941139003  0.8621694412029364   T   T   T
  0.2075973037903840  0.5704976416683700  0.8978187865574493   T   T   T
  0.7777993161106184  0.4332460357737369  0.0756570900818784   T   T   T
