Sr Co O 
 1.0000000000000000
     0.0644814678763572    5.5242898259140292    0.0207339789838588
     9.4912440241286280    0.0905676280791914   -1.5517338958590414
    -3.1479582041488219   -2.8329181577623874   -8.7002046777463438
 Sr  Co  O  
   8   8  20
Selective dynamics
Direct
  0.5859361498700143  0.8776171483563604  0.1376341323625364   T   T   T
  0.9322529906505993  0.6597579164506420  0.8585345845307654   T   T   T
  0.8104571865717235  0.9608751876627162  0.6248401547197192   T   T   T
  0.7056810576789198  0.5560093496925717  0.3901947421449467   T   T   T
  0.0771833641068608  0.3412943115350469  0.1488228018007932   T   T   T
  0.4214069586945178  0.1280067806670545  0.8509936914869092   T   T   T
  0.2941220704239639  0.4219016410970893  0.6033301456558767   T   T   T
  0.2179235922816955  0.0699826032801422  0.3865767010277399   T   T   T
  0.0049805396715759  0.0021740830824436  0.0017795579883177   T   T   T
  0.7517585733720733  0.2540882630707430  0.5094562744152191   T   T   T
  0.8498281432674318  0.2989393193265738  0.7779474458690295   T   T   T
  0.6465457602603427  0.1980362246194490  0.2429919722976647   T   T   T
  0.5205053541739969  0.5313516885716140 -0.0032261123984587   T   T   T
  0.2537089608116994  0.7480665947824860  0.4901196079572632   T   T   T
  0.3528040731096775  0.7956509681921616  0.7595430857085697   T   T   T
  0.1385425625442681  0.6901947606957329  0.2171790562032057   T   T   T
  0.7872834688936750  0.4373373415116076  0.6471236312922942   T   T   T
  0.7288929210673103  0.0654757454768993  0.3937795320893210   T   T   T
  0.0507974243341800  0.2168208150724403  0.6550481325591698   T   T   T
  0.4613367478813845  0.3041915220390203  0.3625422797266334   T   T   T
  0.9249386938972283  0.3132139609988310  0.3811578293445093   T   T   T
  0.5533216642291745  0.1926674737742368  0.6169006401906634   T   T   T
  0.9468357619140819  0.1607611872697609  0.8863640241347909   T   T   T
  0.3618959552574141  0.1195023377844761  0.1055153886204601   T   T   T
  0.8660851185590167  0.1056199139400837  0.1423243680211913   T   T   T
  0.6606958829698302  0.3784845558661198  0.9128236888094228   T   T   T
  0.3170757610902941  0.9206231139725692  0.6141370541073762   T   T   T
  0.1967403915693750  0.5736787431149267  0.3711192930971621   T   T   T
  0.4470664778542308  0.7912296360510954  0.3775488315759719   T   T   T
  0.0541341281452860  0.7025970698918765  0.6013728079514219   T   T   T
  0.4123771930375081  0.6253397831617402  0.8323705592455972   T   T   T
  0.0941807055620342  0.8484505780218888  0.1313393637885771   T   T   T
  0.6558308756595889  0.8824709190008644  0.8760075477035867   T   T   T
  0.7781110086506974  0.6310683921009159  0.1580728877586739   T   T   T
  0.2446545531711332  0.5446309740819678  0.0684219249448257   T   T   T
  0.1371079506996560  0.8988887651429744  0.8613124902373998   T   T   T
