Sr Co O 
 1.0000000000000000
    -4.7050758874750471    2.8443929401082984    0.7721970705234392
    -4.5151083283388092   -8.2612363678556964    0.6670069790193717
     3.0107526207724509    2.7926316374168163    8.8345877887769735
 Sr  Co  O  
   8   8  21
Selective dynamics
Direct
 -0.0159755473356955  0.2933683656902117  0.8526187470546096   T   T   T
  1.0115718297288689  0.7113026613425396  0.1395279027238816   T   T   T
  0.0087568875938557  0.1152542309796165  0.4018636988237539   T   T   T
  0.9853735912957285  0.8620498726163758  0.6022510184852297   T   T   T
  0.4957634290138617  0.7805735678487191  0.8471479459358825   T   T   T
  0.5072111318119795  0.2090376229225538  0.1398290947675209   T   T   T
  0.4863419758811522  0.6409947476609461  0.4068744115589684   T   T   T
  0.4817872463811666  0.3702361307783097  0.6332982850854934   T   T   T
 -0.0146000591130918 -0.0027958825093776  0.0031114344510118   T   T   T
  0.4994464787666441  0.0006516479880606  0.5018325872720175   T   T   T
  0.5108243599484692  0.9207525917544211  0.2380245443298051   T   T   T
  0.4955772239764386  0.0890172587823871  0.7660927460195499   T   T   T
  0.5046609818622669  0.4950462243473042 -0.0058711629118456   T   T   T
 -0.0054847566526021  0.4929731776039309  0.5010336045466417   T   T   T
  0.0297662488571585  0.4050867094031377  0.2107201277100607   T   T   T
  0.9951286887164922  0.5984140544108005  0.7682876904327139   T   T   T
  0.2663901658190977  0.8766667705611113  0.3656546904827768   T   T   T
  0.7452674152364200  0.1144754639949190  0.6232197959839587   T   T   T
  0.7175387545646958  0.8708207115850680  0.3711460694610924   T   T   T
  0.2622213900974487  0.1115025436096871  0.6316482418237500   T   T   T
  0.4853401381638739  0.8852322547479691  0.6303481398801911   T   T   T
  0.5141661023384225  0.1337975113936834  0.3917336249841500   T   T   T
  0.7900359954146831  0.9559472982799417  0.1460206258957723   T   T   T
  0.4536833608780720  0.2896482790553751  0.8714972168966101   T   T   T
  0.6858801823579082  0.0500341785070164  0.8996883819732207   T   T   T
  0.3007577434226781  0.9338731939730672  0.1017030152409644   T   T   T
  0.2331250234389759  0.6159253127718285  0.6268962560091008   T   T   T
  0.1880982781423275  0.3590254746802382  0.3600298453457907   T   T   T
  0.7603658334907205  0.6110835318531204  0.6246388675393015   T   T   T
 -0.0145066720476932  0.3890259313042791  0.6369196533447981   T   T   T
  0.9530742847684680  0.5879240668369804  0.3660694648019351   T   T   T
  0.3171197489832899  0.5102981247610382  0.1540453939657397   T   T   T
  0.7345155471527091  0.5770919061483479  0.9010666286644828   T   T   T
  0.0781468723116777  0.1995242360642820  0.0739349532659848   T   T   T
  1.0150102060752615  0.8199123522207745  0.8518025674350143   T   T   T
  0.2320047489794937  0.5664357869380845  0.8963908961514256   T   T   T
  0.7861158142630397  0.4332920111926038  0.1029028310528433   T   T   T
