Sr Co O 
 1.0000000000000000
    -4.7923554652942162    2.7792526198212792    0.7780317971951173
    -4.7202378730421888   -8.2209928461378077    0.6896802787955032
     3.1594581427133037    2.7858416743502494    8.7452785317771990
 Sr  Co  O  
   8   8  21
Selective dynamics
Direct
 -0.0033610215275845  0.2961418913609462  0.8374245748421767   T   T   T
  1.0081300407606242  0.6988135610105610  0.1429957280034773   T   T   T
 -0.0044725740638769  0.1400752240684399  0.4034083712833815   T   T   T
  1.0037966274246100  0.8745178795188694  0.5980134972328833   T   T   T
  0.4987038855908410  0.7653242021752901  0.8372221111788277   T   T   T
  0.5127155719813009  0.2199612645067387  0.1640469864839191   T   T   T
  0.5045237922004769  0.6449208856536822  0.4047342909940961   T   T   T
  0.4969464378456524  0.3741358341436012  0.5998442751706643   T   T   T
  0.0706963163942639 -0.0085777331685089  0.0026004599774083   T   T   T
  0.4953243335775306  0.0096959864960653  0.5022458546761043   T   T   T
  0.5055970887623559  0.8963066221979484  0.2346720541422348   T   T   T
  0.4586863619891323  0.1008961926144323  0.7696867175384271   T   T   T
  0.5174705319389491  0.4981801866937118 -0.0147546412412991   T   T   T
  0.0019618365304683  0.5071120342275698  0.4965194810316561   T   T   T
 -0.0080751196997709  0.3928820002191858  0.2308055431971237   T   T   T
  0.9916462201102358  0.5962889102941134  0.7686476732568346   T   T   T
  0.2562723114520307  0.8876139383069637  0.3779007047357387   T   T   T
  0.7146741260565366  0.1343209643509353  0.6464648440625058   T   T   T
  0.7301179802560026  0.8803116389037090  0.3776036073419375   T   T   T
  0.2586926811802746  0.1392816640722807  0.6113558902986115   T   T   T
  0.4947687112567437  0.9028139253541151  0.6372742112604549   T   T   T
  0.5222145626830543  0.1062428860179562  0.3620557328681113   T   T   T
  0.1803386740918394  0.0407440873673964  0.8453119852557119   T   T   T
  0.5073216446807979  0.6791103983575223  0.1438732728997706   T   T   T
  0.4547967380208450  0.2883450626686956  0.9214589588716030   T   T   T
  0.3709933465928539  0.9466574550540580  0.0836696546882668   T   T   T
  0.7485181951573443  0.3921953225774815  0.3824599841657086   T   T   T
  0.2319526795286284  0.6279678005371473  0.6325750364418209   T   T   T
  0.2250733228256959  0.3726140702295931  0.3635518319726866   T   T   T
  0.7861800857252048  0.6386486055229562  0.6249867947315105   T   T   T
  0.0032046937588181  0.3997841249926473  0.6241144910942087   T   T   T
  1.0225888083422101  0.6047221012850886  0.3563364014442038   T   T   T
  0.7200325666633168  0.5291123430662764  0.8442451538038956   T   T   T
 -0.0311553705579602  0.1672083145855351  0.1391765614796230   T   T   T
  0.9425463400717736  0.8054481098524277  0.9181358434896882   T   T   T
  0.2179465964948137  0.5493088488249604  0.8978321997115963   T   T   T
  0.8271307323899638  0.4343732063125998  0.0915036081571165   T   T   T
