Sr Co O 
 1.0000000000000000
    -4.8958213204320460    2.7519680883971107    0.5900560822179647
    -4.9286172788918536   -8.3165989816942023    0.5161442478014698
     3.7152514177425680    2.8582687747545457    8.8665451264747102
 Sr  Co  O  
   8   8  20
Selective dynamics
Direct
  0.0062836214377426  0.2902836308350424  0.8803158200102726   T   T   T
  0.9612452608005454  0.6913617804265016  0.1549335635796130   T   T   T
 -0.0262284804159088  0.1228419403372857  0.3356555623406146   T   T   T
  1.0048585961754271  0.8507055522326031  0.6243897968751542   T   T   T
  0.5480788547941541  0.7800169972028878  0.8564432777197190   T   T   T
  0.4856989454294910  0.2300847361958431  0.1495490696785662   T   T   T
  0.4714362534717649  0.6111840302003479  0.4029586920536170   T   T   T
  0.5227398215202451  0.3858615521993348  0.6344810852989898   T   T   T
  0.0341109158651701  0.0132821695157900 -0.0116647800104816   T   T   T
  0.4548780919571603  0.0158650161129248  0.5046634534233070   T   T   T
  0.4442637759087377  0.8897287737196395  0.2042354150472555   T   T   T
  0.4933703178092608  0.0659789647828130  0.7674249439239765   T   T   T
  0.4650615504761711  0.5167535305060131  0.0411841413064382   T   T   T
  0.0015139941299751  0.4984795594412080  0.4990403775303165   T   T   T
 -0.0211468221862999  0.4055756500371488  0.2334911924118283   T   T   T
  1.0386978178130721  0.5991853693751713  0.7845610342762241   T   T   T
  0.2310977786034466  0.9138551842069413  0.3511403697373579   T   T   T
  0.7164820810702632  0.1232354066037720  0.5229280523207268   T   T   T
  0.3046722589767515  0.1703037569929183  0.6686846302088632   T   T   T
  0.4736373423390582  0.8718194668758003  0.6005652035111917   T   T   T
  0.7125334266693428  0.9134788504314892  0.1286019920914357   T   T   T
  0.2944263051959498  0.0909852779603521  0.9049791494210209   T   T   T
  0.5234647204974940  0.7049302523433032  0.2014547601877124   T   T   T
  0.7969725164665077  0.0362915954971300  0.8325164725626726   T   T   T
  0.2602939685402780  1.0128096706550878  0.1451790874026235   T   T   T
  0.7571610089788788  0.3810683487115195  0.3655660853796121   T   T   T
  0.2471470477251212  0.5970470024897826  0.6409036365807348   T   T   T
  0.2168859989954570  0.3677317899360093  0.3747247351651427   T   T   T
  0.7921605044614897  0.6109602396647570  0.6362529448382251   T   T   T
  0.9938204279169178  0.6188153768693038  0.3695649132228585   T   T   T
  0.2225860626593825  0.4382629996836628  0.1217412276743359   T   T   T
  0.8130213525063053  0.5390114191203650  0.8666393635914351   T   T   T
 -0.0646433775481495  0.1956426474353700  0.1142846032807990   T   T   T
  1.0808835671078707  0.8182050584406086  0.8700158532440203   T   T   T
  0.2999250925622357  0.5272647524702165  0.8795313154125205   T   T   T
  0.7307599090561342  0.4282419362168015  0.0903629641888277   T   T   T
