Sr Co O 
 1.0000000000000000
    -4.7545775006761009    2.6734985822623751    0.6814489294203313
    -4.8883302545242584   -8.2458406094807337    0.5873432983679282
     3.4358801728865349    2.8721151543041654    8.8343902086033896
 Sr  Co  O  
   8   8  23
Selective dynamics
Direct
  0.0107188742932332  0.2810065203870516  0.8604978140397227   T   T   T
  0.9993612471742426  0.7087922364016394  0.1222613350105107   T   T   T
  0.0026584707221672  0.1436369736847640  0.3781356050892193   T   T   T
  1.0037131039465861  0.8642179416140432  0.6369012491430852   T   T   T
  0.5083232247715490  0.7757612877791861  0.8568602587464397   T   T   T
  0.4899758487529728  0.2255601570111588  0.1328753261020210   T   T   T
  0.4733736441367989  0.6185431557034106  0.3870755216804287   T   T   T
  0.5138125481036585  0.3724159929391737  0.6219912170508353   T   T   T
 -0.0042999692989800  0.0059307067356265  0.0022371674327707   T   T   T
  0.4811602743010902  0.0041433824361277  0.5054468135552231   T   T   T
  0.4829470660650042  0.9245975975753667  0.2184865723675045   T   T   T
  0.5089934148810276  0.0765951097183265  0.7699039633338601   T   T   T
  0.5020902380299181  0.4987350131626723 -0.0014480399330396   T   T   T
 -0.0052410214552587  0.5005034647298526  0.4991643087949142   T   T   T
 -0.0192982527092369  0.4244058358231495  0.2310098470371139   T   T   T
  1.0140420514718731  0.5772548421464503  0.7672887471748182   T   T   T
  0.2869461866385907  0.8783506355842589  0.3533138235329464   T   T   T
  0.7341153416082922  0.1051194504659594  0.6370512653750479   T   T   T
  0.2718612103982674  0.1250915643162030  0.6371994642764591   T   T   T
  0.4930480220249661  0.8780166842843263  0.6085584548234934   T   T   T
  0.5275857668029071  0.1077828147903177  0.3875738391508761   T   T   T
  0.7577601868411534  0.9714269768809313  0.1495110971466222   T   T   T
  0.2642088275875927  0.0246882119014542  0.8632532352559107   T   T   T
  0.4867950532955899  0.7321052558836362  0.0976912366390184   T   T   T
  0.5314393028200116  0.2700732609757212  0.8984203117303075   T   T   T
  0.7577017308123988 -0.0018786326133960  0.8623487679117690   T   T   T
  0.2326328498264522  1.0133963255389340  0.1438808039537712   T   T   T
  0.7598829884613532  0.3852455221054100  0.3610692665577416   T   T   T
  0.2352769589036926  0.6123003899920411  0.6355435123837732   T   T   T
  0.2164493773825941  0.3799453263730607  0.3617377838979881   T   T   T
  0.7755855591209262  0.6193967687001285  0.6379123794150477   T   T   T
  0.0025142345127599  0.3804537611888681  0.6114044181887387   T   T   T
  0.9845238097771483  0.6235870636139967  0.3889878139530130   T   T   T
  0.2217779411620950  0.4773014082170349  0.1348974030088447   T   T   T
  0.7810341510485908  0.5230513726598297  0.8667448828860123   T   T   T
 -0.0381539554807830  0.2312292589293074  0.0963725624602933   T   T   T
  1.0358089092036014  0.7734697872026955  0.8979976819482323   T   T   T
  0.2789439025034330  0.5040573042365823  0.8571143230730474   T   T   T
  0.7175809951587333  0.5013391927638818  0.1460276970958408   T   T   T
