Sr Co O 
 1.0000000000000000
     4.7731771095363174   -2.7940891322424903   -0.7882472031549573
     4.7084110402746955    8.2515715614394924   -0.7943200084323808
    -1.6687090658694876   -0.0130387901339639    9.4765674166590443
 Sr  Co  O  
   8   8  20
Selective dynamics
Direct
  0.4230174554277170  0.1103367458321760  0.8407086440992008   T   T   T
  0.0723551896318622  0.3568304934833409  0.1686825870235729   T   T   T
  0.1980921835626084  0.0614487099465316  0.4070325747085461   T   T   T
  0.3087757778413522  0.4344207204598191  0.6025577328915357   T   T   T
  0.9243464303252262  0.6617862485080310  0.8355806033134765   T   T   T
  0.5736387106402893  0.8791321114504811  0.1487764339432918   T   T   T
  0.7087703732561526  0.5642139576267085  0.4025456722553536   T   T   T
  0.7909453542991692  0.9214926891866599  0.5905421051538069   T   T   T
 -0.0155522749237282 -0.0055756730604032 -0.0129039609142149   T   T   T
  0.7581724876529788  0.2476617016926559  0.5103872166109498   T   T   T
  0.6297038771225476  0.2272233125637164  0.2392631235594703   T   T   T
  0.8991837078061596  0.2693866342950084  0.7748585573499501   T   T   T
  0.4514496562650718  0.5218318213297587  0.0170794481112547   T   T   T
  0.2459575409060446  0.7422965035840949  0.4884649809391773   T   T   T
  0.1084103867806994  0.7148717196098271  0.2220516008858518   T   T   T
  0.3927577948783239  0.7837558571154074  0.7603767594422584   T   T   T
  0.9496584053964021  0.3075506009899331  0.3949456610933857   T   T   T
  0.5730755835109742  0.1931278361374022  0.6376007943058324   T   T   T
  0.4747649114898975  0.3217141836896211  0.3791192288248190   T   T   T
  0.0406576614045247  0.1651769783523191  0.6254649694380110   T   T   T
  0.8584808744908388  0.4186234637355753  0.6663682934824519   T   T   T
  0.6531708643526618  0.0814466762236170  0.3611434169425355   T   T   T
  0.5923538636831785  0.3949048904231756  0.1339626997553586   T   T   T
  1.0388131496359578  0.1817751483531062  0.9332346210789572   T   T   T
  0.7361669364806284  0.1139842181791541  0.1006271543036082   T   T   T
  0.4351712759206441  0.7968469187356816  0.3686009109728716   T   T   T
  0.0840004319417716  0.6873837974657404  0.6230754833371966   T   T   T
  0.9509162962530677  0.8072644802330448  0.3629400172494907   T   T   T
  0.5322947365438533  0.6768405302021340  0.6136873204830234   T   T   T
  0.3133785865094594  0.9126596426930050  0.6219201934091112   T   T   T
  0.1541738920581259  0.5740873277963398  0.3488641107379757   T   T   T
  0.7034434987324053  0.8944320463742623  0.8439379084721730   T   T   T
  0.0652904188408605  0.8823971580955609  0.1361234334654580   T   T   T
  0.4803082903774273  0.6230458838173761  0.8793201664383072   T   T   T
  0.2383886658238429  0.8947763073477826  0.8982079284359620   T   T   T
  0.1554667703627215  0.5788482327891699  0.0668514569824391   T   T   T
