Sr Co O 
 1.0000000000000000
     4.6774847052580704   -2.7339747047249134   -0.7275128225198538
    -4.7548004272601423   -2.8215855584878970    0.8391226803847788
     3.3597073542112255    0.3964990125745279  -18.8468332384395900
 Sr  Co  O  
   8   8  20
Selective dynamics
Direct
  0.2804940039461307  0.6626738133269884  0.5684292354334477   T   T   T
  0.7412968382925654  0.2948714047524029  0.9354385848729162   T   T   T
  0.1346839941529290  0.8291287931093204  0.8079683858631111   T   T   T
  0.8285205480658935  0.0579924792607123  0.6924446608204328   T   T   T
  0.2904743997598145  0.7554397194105812  0.0748924323857857   T   T   T
  0.7255936301367268  0.3091222948212108  0.4308462024452080   T   T   T
  0.1161053172722268  0.9171519080364418  0.3002673768493193   T   T   T
  0.8671148843337293  0.1597378458252331  0.1831266063603774   T   T   T
  0.0064901691292441  0.0062375805589427  0.0048874532013081   T   T   T
  0.4443901331096008  0.4179691792574106  0.7474188973175239   T   T   T
  0.4599064712943504  0.6043980889608292  0.8796170341371253   T   T   T
  0.5629032151320073  0.3365049150576531  0.6170823262975615   T   T   T
 -0.0036620066970126  0.0029388369915648  0.4899687280890475   T   T   T
  0.4598069880012941  0.5461381608607616  0.2525226301855363   T   T   T
  0.4006318330212743  0.6369041679465081  0.3902083125404063   T   T   T
  0.5886771382312070  0.4489235728739444  0.1172644948220671   T   T   T
  0.6210775981307632  0.3601816207362776  0.8104138434900271   T   T   T
  0.3133041247236019  0.4886242937315170  0.6770000748513668   T   T   T
  0.1384859677898606  0.3416195231438916  0.8280733580472179   T   T   T
  0.3532291551649946  0.0639480037506149  0.6805243078941887   T   T   T
  0.6180318776271045  0.7966982253822681  0.7908745839086879   T   T   T
  0.2627362118062078  0.7877177210300804  0.9425279703504638   T   T   T
  0.8125436726481386  0.1766318882210518  0.5726686738069821   T   T   T
  0.7459048753850099  0.6173847492081749  0.5681957254694443   T   T   T
  0.7973587729114682  0.8323243069974680  0.9255321736654927   T   T   T
  0.3779185731762734  0.6533056261457820  0.1815516232029174   T   T   T
  0.1285844707641519  0.4237510397709943  0.3205769152382685   T   T   T
  0.8204811810531666  0.6272662061536695  0.1977088472703813   T   T   T
  0.3580570723106483  0.1876792614980181  0.1856847482781882   T   T   T
  0.5738609572223392  0.8910532094235472  0.3218428234290689   T   T   T
  0.2798699822787686  0.8965274265555290  0.4754403722765560   T   T   T
  0.7943515215793392  0.2384284152298902  0.0599119631155959   T   T   T
  0.2325128659293892  0.3272106262590375  0.4391358699859390   T   T   T
  0.8296910520559270  0.7579642848801378  0.0712707629121712   T   T   T
  0.3340989195017763  0.2921330627096672  0.0414869608455295   T   T   T
  0.7594732364888376  0.7584178123565051  0.4158450749405153   T   T   T
