Sr Co O 
 1.0000000000000000
     4.7664166958041809   -2.6930755535600901   -0.7379744588081013
     4.8141971204927660    8.1706405612489803   -0.8134819874249385
    -1.6114024112620224   -0.0702466289021330    9.4536956468782556
 Sr  Co  O  
   8   8  20
Selective dynamics
Direct
  0.4203980275496139  0.1508332551109772  0.8390936178624301   T   T   T
  0.0725169198875837  0.3786365640207317  0.1352391023891491   T   T   T
  0.2157850177126562  0.0730657006838633  0.3984336462513735   T   T   T
  0.3067506196923579  0.4254696394963998  0.6121246287438037   T   T   T
  0.9065213784216705  0.6278046541403085  0.8424979585610576   T   T   T
  0.5809573599372835  0.8456605896942082  0.1422266632433505   T   T   T
  0.6883896631766552  0.5583515258813735  0.4098953740282836   T   T   T
  0.7934316937474479  0.9507225746441005  0.6176068954381060   T   T   T
  0.0034155941363962 -0.0009743127002933 -0.0012739848432879   T   T   T
  0.7514416992172688  0.2442660894153280  0.4874789489422283   T   T   T
  0.5910981612197158  0.1885532424632742  0.2270585356116649   T   T   T
  0.8855020647825718  0.2899778701951731  0.7630003979141582   T   T   T
  0.4937201904723100  0.5113772041179950 -0.0111559720179676   T   T   T
  0.2530699265039746  0.7521906542105541  0.5112915689901982   T   T   T
  0.1376036128871717  0.7095191308720419  0.2234772258564165   T   T   T
  0.3902659360774263  0.7974308078587262  0.7742298990672345   T   T   T
  0.8898561736694357  0.2909783535573089  0.3279360107255265   T   T   T
  0.5889260404530828  0.1982727134217191  0.6228338515386824   T   T   T
  0.4384234725621343  0.3081181124308786  0.3687285002908166   T   T   T
  0.0493414789625780  0.1902977271029522  0.6194035066291433   T   T   T
  0.8299259554105002  0.4197710551411746  0.6226406607216103   T   T   T
  0.7044273763294714  0.0540483850365085  0.3681979420559095   T   T   T
  0.3390066109130903  0.0960277303989355  0.0774486216069677   T   T   T
  0.1880358078940895  0.3877519846740787  0.8923574558720810   T   T   T
  0.9191897615234371  0.1242959142112506  0.8689933545563631   T   T   T
  0.6753633922858759  0.3916680890107278  0.8842748371602075   T   T   T
  0.4111471347072579  0.8045295117377037  0.3777920016999661   T   T   T
  0.0618487882265735  0.7242657479333089  0.6406292839588961   T   T   T
  0.5395202180349777  0.6640526897282203  0.6333107061626375   T   T   T
  0.3358175313015883  0.9308913439564505  0.6408084198211966   T   T   T
  0.1194817259589067  0.5948099296750117  0.3696071808667732   T   T   T
  0.8502949384702315  0.6226514371320332  0.0985094356815894   T   T   T
  0.6972061860175262  0.8930225401071260  0.9047742461660604   T   T   T
  0.0874476065546703  0.8902099381909926  0.1483569721293248   T   T   T
  0.3694569291767239  0.6823076418114138  0.9033163902679692   T   T   T
  0.3969148662391115  0.5706435228488108  0.1581558482638672   T   T   T
