Sr Co O 
 1.0000000000000000
     4.8999821204866931   -2.8090337443686741   -0.6066611344676115
    -4.8844759127323023   -2.7647441544401601    0.6708531333533665
     2.5783286585985254    0.2504628510181248  -19.0733405654629529
 Sr  Co  O  
   8   8  20
Selective dynamics
Direct
  0.3715631357547821  0.7455769832047813  0.5530355960137023   T   T   T
  0.6290419381905550  0.2465172978365038  0.9514137307104550   T   T   T
  0.0781437945383311  0.9077168767923898  0.8277509207038543   T   T   T
  0.9222407218135463  0.2188191386394629  0.6896547809911616   T   T   T
  0.2357023549377570  0.6440731513852699  0.0734649784491183   T   T   T
  0.7383957327887647  0.2486665346859055  0.4244874186065140   T   T   T
  0.1682698732547262  0.7939037586522693  0.2852194584731203   T   T   T
  0.8575400446596555  0.0325549804243690  0.1677108076973803   T   T   T
 -0.0610050712763134 -0.0571226483203375 -0.0000408276591442   T   T   T
  0.5073611624834612  0.6581620033710243  0.7542787153352686   T   T   T
  0.3152039162003744  0.5593559835370029  0.8983414971410153   T   T   T
  0.7284212398184098  0.5508284038304727  0.6209089179555217   T   T   T
  0.0648127935543676 -0.0323041455661095  0.4852737917758915   T   T   T
  0.5162487476146437  0.4438208962824812  0.2490952494428716   T   T   T
  0.4491221498404093  0.5618057213786147  0.3894904188863884   T   T   T
  0.5540909420133425  0.3434828247700115  0.1174666878223515   T   T   T
  0.2066426363181526  0.3792405488222045  0.8009028992852983   T   T   T
  0.8347196119312378  0.6290745440877317  0.7185067624709564   T   T   T
  0.4112468405366727  0.5924430259602257  0.6563028313496014   T   T   T
  0.5720107847562079  1.0001544729874559  0.7967895703729257   T   T   T
  0.0861323133038544  0.7105668476384279  0.9331594160334182   T   T   T
  0.7568768898697198  0.2558361884775415  0.5732634396100852   T   T   T
  0.1902115216514190  0.2482377365078564  0.9424188496256363   T   T   T
  0.9968799657094523  0.8804799746164110  0.5796510959599546   T   T   T
  0.6628027593711275  0.7897533286189868  0.9242998716293380   T   T   T
  0.5862616592653287  0.3376613740887537  0.3247529698164686   T   T   T
  0.3413551389246531  0.5053407823528272  0.1867437503614786   T   T   T
  0.8516877812689313  0.5817194140928053  0.1802998961236314   T   T   T
  0.4105221920520939  0.0920031851805324  0.1892513769315706   T   T   T
  0.5770294951174711  0.7734284944005499  0.3124962791641865   T   T   T
  0.1976078389815921  0.7031114411296738  0.4305486764221523   T   T   T
  0.7795995383476365  0.1795425750745741  0.0598538559281323   T   T   T
  0.3262997604325750  0.3208017546856985  0.4632876403432921   T   T   T
  0.6897205693654929  0.6373661971029670  0.0580362904156501   T   T   T
  0.2401138920966304  0.0889242933716395  0.0634099143969517   T   T   T
  0.7521251507777664  0.8414562767325769  0.4448225312627824   T   T   T
