Sr Co O 
 1.0000000000000000
    -0.0615601343825198    5.5354880716789987   -0.1457277573146210
     9.8051450554251094   -0.1220018320828774   -1.3141794366016510
    -3.5544418500868278   -2.4471860901466442   -8.6971773140766029
 Sr  Co  O  
   8   8  20
Selective dynamics
Direct
  0.5965104364186539  0.8397801001304914  0.1382144601462393   T   T   T
  0.9262850230220463  0.6297358830175639  0.8595929297582374   T   T   T
  0.8464101331466120  0.9485527773643683  0.6031408533436431   T   T   T
  0.6786139852700973  0.5288320488787592  0.3680733418159234   T   T   T
  0.0485498690314559  0.3624556516239733  0.1218643252106045   T   T   T
  0.4123618713536218  0.1671056991378486  0.8751883497610038   T   T   T
  0.3033843146545368  0.4382148028746330  0.6328778233012695   T   T   T
  0.1639768441774948  0.0766088073126303  0.3484049656324835   T   T   T
  0.0005893244462419 -0.0155096358486237 -0.0196303426877746   T   T   T
  0.7541366499184017  0.2464639528090611  0.4869834616527871   T   T   T
  0.8819603152417766  0.3002261519869632  0.7637303894079834   T   T   T
  0.5659751852903223  0.2023475543516886  0.2234752807239839   T   T   T
  0.5001464086861245  0.5050677832778476  0.0002447161669960   T   T   T
  0.2556930153271622  0.7256515438833518  0.5008985695976551   T   T   T
  0.3811092040922379  0.8064420125186660  0.8061003254069238   T   T   T
  0.1082889167155583  0.7002941228833111  0.2217742756705560   T   T   T
  0.8310904431768836  0.4176825346730927  0.6284647732623720   T   T   T
  0.6376017401765715  0.0627394793220502  0.3481559702285362   T   T   T
  0.0390349693427484  0.1876697301152709  0.6049763473018684   T   T   T
  0.4504621716106488  0.3081305588291616  0.4090176019965790   T   T   T
  0.8901467493044986  0.2756138937012548  0.3200398217217862   T   T   T
  0.8713563411606173  0.1584478568159332  0.8492734697606991   T   T   T
  0.5494009205329571  0.3374160655689663  0.1177665163398270   T   T   T
  0.1786412160698287  0.4222025825730808  0.8957180137003101   T   T   T
  0.2462114732560927  0.1220945671987065  0.1137960511974618   T   T   T
  0.6228024084132143  0.3862891340530827  0.8392012783798388   T   T   T
  0.1329012735651088  0.5658730132882431  0.3472210984197537   T   T   T
  1.0607726446164392  0.8421828891713544  0.3981911893457558   T   T   T
  0.5847898715632301  0.7357089470217190  0.5559441398921213   T   T   T
  0.1391816784833977  0.6873029927628398  0.6560153597267282   T   T   T
  0.4839179517042946  0.6602183672546984  0.8763514717574395   T   T   T
  0.0812370486269528  0.8479848510217095  0.1105922428981402   T   T   T
  0.6513946080741718  0.9348454205475848  0.9235158688828241   T   T   T
  0.8228552692967623  0.5907602876298893  0.0963269128634911   T   T   T
  0.3908409295191989  0.6269669737405108  0.1648895323779203   T   T   T
  0.1600689257446478  0.9383006957214840  0.8170087131817886   T   T   T
