Sr Co O 
 1.0000000000000000
    -4.6671155426617421    2.9083635748172108    0.6883009647526902
    -4.3337093456961622   -8.2474674907705943    0.6595645297218293
     3.0330834015964476    2.7105320879163801    8.9023363538008713
 Sr  Co  O  
   8   8  20
Selective dynamics
Direct
 -0.0233393961930781  0.3000883220674129  0.8550614691022318   T   T   T
  1.0206698655838589  0.7021061008221245  0.1328231096575233   T   T   T
  0.0373848094989268  0.1060323779916794  0.3667177327125717   T   T   T
  1.0006991444931834  0.8488507547085340  0.5992633415531486   T   T   T
  0.5096161254478019  0.7815853497290540  0.8601522918045240   T   T   T
  0.4975555479412467  0.2105010488261098  0.1402925125686585   T   T   T
  0.4852950558964825  0.6394643838479562  0.3999770176185146   T   T   T
  0.4630260215124740  0.3881138662940242  0.6208983758192292   T   T   T
 -0.0087476717375425  0.0023225288520497  0.0010481621445227   T   T   T
  0.5131951177016059  0.0086812168219107  0.5005802917739950   T   T   T
  0.5216037112666597  0.9150295467222874  0.2355774502011845   T   T   T
  0.4466721231718366  0.0668486761406827  0.7795141335931027   T   T   T
  0.5089782361012131  0.5011096436419457 -0.0002018987487341   T   T   T
 -0.0089895198588652  0.4887728640374045  0.4962394843121664   T   T   T
  0.0171224737227491  0.4004966004719015  0.2169418759176639   T   T   T
  0.9922713783310109  0.5937953047278675  0.7615904523695518   T   T   T
  0.2758311109576249  0.8613078565802452  0.3540379680937598   T   T   T
  0.7437255950298060  0.8873753991900328  0.3788453624983031   T   T   T
  0.2833994037202526  0.1221912724261122  0.6367619400562218   T   T   T
  0.5415476839475142  0.9000642577009101  0.6287546530267617   T   T   T
  0.5422644923044257  0.1420533346232769  0.3952126491516837   T   T   T
  0.7666786475936752  0.9041600757109698  0.1066025684818230   T   T   T
  0.2230184820809221  0.1205304527633847  0.9168492125298686   T   T   T
  0.7000422739552864  0.0770389416900276  0.8940151682323605   T   T   T
  0.2919552401959640  0.9405762213636085  0.1129319127726462   T   T   T
  0.2389741339147430  0.6295748713533957  0.6348395492856372   T   T   T
  0.2236003848960534  0.3776725536903294  0.3738328250061142   T   T   T
  0.7594409690059892  0.6067223409924649  0.6138183413697024   T   T   T
 -0.0213841913890677  0.3778864124692017  0.6288974153034961   T   T   T
  0.9485072241948191  0.5863189643625382  0.3588245105253006   T   T   T
  0.3118832378447634  0.4855913800968421  0.1429995692858406   T   T   T
  0.7156398954184410  0.5383413502247452  0.8673350664535967   T   T   T
 -0.0362088282856321  0.1928610837105909  0.1552146603979793   T   T   T
  1.0046609378799054  0.8146191473662684  0.8501680235780023   T   T   T
  0.2434450128137187  0.5498848066946748  0.8991718176194148   T   T   T
  0.7699649514995600  0.4314306883363660  0.0844105313464724   T   T   T
