Sr Co O 
 1.0000000000000000
     4.8115445281852312   -2.7601117791833185   -0.8051904037624809
    -4.8075957651718166   -2.7522901738847718    0.7020997290612575
     3.1483618017436106   -0.3126831937091328  -19.1396020130692222
 Sr  Co  O  
   8   8  20
Selective dynamics
Direct
  0.2720689664346885  0.7210301515091195  0.5920466055870645   T   T   T
  0.6900939052035299  0.2928569808487023  0.9240108696941655   T   T   T
  0.1017607340129174  0.8838332181766673  0.8100555072580202   T   T   T
  0.8585322680890745  0.1467886174983374  0.7074689924287390   T   T   T
  0.3091724230422421  0.7539315929169130  0.0626743384850253   T   T   T
  0.7110550442390099  0.2241386197868533  0.4204661491458475   T   T   T
  0.1781959775049350  0.8638630176005641  0.2877964549754135   T   T   T
  0.9079310803811322  0.1370822306381005  0.1805156045396993   T   T   T
 -0.0099624906543015 -0.0000436897871865 -0.0112214775338900   T   T   T
  0.4991502951639308  0.5022365525456125  0.7498363659579954   T   T   T
  0.3780771462128836  0.6038958686583418  0.8835689529887146   T   T   T
  0.6435386864778690  0.4062409100077533  0.6159331898032379   T   T   T
 -0.0941505462019247 -0.0532402261156808  0.5000464372732712   T   T   T
  0.5514516653551623  0.5054306040606011  0.2498867260691811   T   T   T
  0.4397519263432093  0.5263410546793431  0.3899431174691456   T   T   T
  0.6078384167782387  0.4640876353584364  0.1173033408051421   T   T   T
  0.5724681334084543  0.3994902725684335  0.8245032818245590   T   T   T
  0.4275363294376808  0.5914642485530965  0.6722074628206723   T   T   T
  0.1333822911514881  0.3867781900330837  0.8119140024837643   T   T   T
  0.8732529487604993  0.6346932193130884  0.6984392979998917   T   T   T
  0.4046088147609129  0.1525774810658629  0.6878179120649157   T   T   T
  0.5865010273264575  0.8474273153677615  0.8097278195982770   T   T   T
  0.1805046665961795  0.8118951415902315  0.9257271906521906   T   T   T
  0.8586218988418087  0.2105002350536853  0.5806092549663351   T   T   T
  0.1386440119629455  0.3459114045945830  0.9590673537720379   T   T   T
  0.8280631657953640  0.6158335564305937  0.5355516904885709   T   T   T
  0.6603584263601067  0.8350189965294361  0.9422019615913856   T   T   T
  0.6903099620506972  0.3951420147436789  0.3093948279755971   T   T   T
  0.3653051107591792  0.5883779887565269  0.2003968139600134   T   T   T
  0.9047105589398453  0.6551618606004193  0.1707927640969067   T   T   T
  0.4602567035736718  0.1689650135668571  0.1824705374440100   T   T   T
  0.5647329172597003  0.8015785385907371  0.3225876191504543   T   T   T
  0.1631719215850035  0.1570453813198334  0.4173895658536277   T   T   T
  0.7829128097214466  0.7990565913615002  0.0680011957101205   T   T   T
  0.3628343213325619  0.2368220000430127  0.0575081381440972   T   T   T
  0.5423187107390723  0.8007878762749294  0.4697102867430570   T   T   T
