Sr Co O 
 1.0000000000000000
     4.8044555432305405   -2.7713687210495861   -0.7504996566960093
    -4.7972505142817985   -2.7734998383855105    0.6303776030138388
     2.9207028839128526   -0.3988958514833321  -19.0832145694820987
 Sr  Co  O  
   8   8  20
Selective dynamics
Direct
  0.2717483012440299  0.6942059555329515  0.5635169521340538   T   T   T
  0.6856708193481121  0.2829193332573831  0.9426670562938194   T   T   T
  0.0659754666453180  0.8979225375584916  0.8213255455505873   T   T   T
  0.7867963900392299  0.1363209150867344  0.7076027616927503   T   T   T
  0.3254020644853362  0.7322327223281582  0.0748230214930810   T   T   T
  0.7200192335676218  0.2592911143496883  0.4249425670183541   T   T   T
  0.2028798105556711  0.8779475197494482  0.2938334292850682   T   T   T
  0.9286878022908656  0.1497896187462657  0.1833540560011946   T   T   T
  0.0090733398608537  0.0298647007802662  0.0108334840765128   T   T   T
  0.4082593541285056  0.4989462762535428  0.7522342442403838   T   T   T
  0.3884317313628111  0.5709465030093174  0.8824703915830232   T   T   T
  0.4852830100287168  0.3344045992208032  0.6173966586275726   T   T   T
  0.0398343273349747 -0.0293386800213069  0.4759701353773715   T   T   T
  0.5915142063008211  0.5524745742816963  0.2505864250938377   T   T   T
  0.4503737879284832  0.5832219555513729  0.3840544194334260   T   T   T
  0.6331615522073353  0.4313461802829275  0.1186898139373488   T   T   T
  0.6126332948148624  0.4218969141783543  0.7973928839794902   T   T   T
  0.4197053436757309  0.6397777370819078  0.6695042005915213   T   T   T
  0.0786306082088240  0.3994976138079937  0.8351436274167412   T   T   T
  0.2495137698080284  0.1244128164438371  0.6999007890940799   T   T   T
  0.5344162227013125  0.8510779025425882  0.8131671494123680   T   T   T
  0.7980473750234722  0.2994740853635001  0.5896090989020669   T   T   T
  0.2182218681214856  0.2365499026388739  0.9331166221425379   T   T   T
  0.2872963827793359  0.1594769160670433  0.5403483052523904   T   T   T
  0.6439205652681314  0.7939714240215306  0.9397817938387895   T   T   T
  0.6905065168322440  0.4380807317290186  0.3186280342285592   T   T   T
  0.4698526803969149  0.6592293387683661  0.1844480793290653   T   T   T
  0.9232630844224454  0.6356330365404302  0.1788782624861574   T   T   T
  0.4255261770639824  0.1992872461454943  0.1983110503399399   T   T   T
  0.6422730045365366  0.8685928207720474  0.3177932787330051   T   T   T
  0.1811404107531056  0.7069944039918273  0.4317349115435541   T   T   T
  0.7861987692060185  0.1875207402085953  0.0714199268311298   T   T   T
  0.1752151589256587  0.2189951319126759  0.4051190748815565   T   T   T
  0.8724011317971915  0.6853797978137304  0.0411732109916178   T   T   T
  0.3229312106006749  0.2264418811409071  0.0671495257801394   T   T   T
  0.6711949065535030  0.7432138803673680  0.4670792249812414   T   T   T
