Sr Co O 
 1.0000000000000000
    -4.7846598800871147    2.7764532041770402    0.8140242091169536
    -4.6402106987257072   -8.1439619083679560    0.5610196607162641
     3.1043556973896869    2.9177734272558467    8.7596725507903734
 Sr  Co  O  
   8   8  20
Selective dynamics
Direct
 -0.0066028415941925  0.2898330454149921  0.8551837744741848   T   T   T
  1.0086993426235447  0.6944855998750907  0.1429758122196997   T   T   T
  0.0064970910810776  0.1513491979383253  0.3994838126032818   T   T   T
  1.0103755717597713  0.8688324979470744  0.5952817006842011   T   T   T
  0.4908837535355707  0.7771759162438393  0.8493672102767676   T   T   T
  0.5064658851938997  0.2181194400435131  0.1514420921645306   T   T   T
  0.5068462450911440  0.6125311713208057  0.3777789252126983   T   T   T
  0.4991902506058963  0.3882766510419387  0.6039490387364946   T   T   T
  0.0126096374982664 -0.0023793734056330 -0.0120831682208066   T   T   T
  0.5086342767067100  0.0112188088202671  0.4983010920902457   T   T   T
  0.4913601437072391  0.9196635946166101  0.2412878627564561   T   T   T
  0.4970269412390489  0.0847123413575789  0.7689276568257515   T   T   T
  0.4878391692280731  0.4865315384580094 -0.0065058941442707   T   T   T
  0.0109914994308122  0.5164015463881870  0.5040519320917017   T   T   T
  0.0014101199619285  0.4030130300265749  0.2321809859428161   T   T   T
  0.9855345425780280  0.5984996640465337  0.7795343369589037   T   T   T
  0.2611368240221434  0.8876415826007924  0.3845243910981014   T   T   T
  0.7423392742320594  0.1029920973509733  0.6398821660242138   T   T   T
  0.7219068463868579  0.8644042668934651  0.3514824514187178   T   T   T
  0.2984486482089259  0.1388017636779184  0.6415245510321764   T   T   T
  0.5373112978168081  0.1328879250731450  0.3690122995334719   T   T   T
  0.2320954082607415  0.0183826421855499  0.8389201186899075   T   T   T
  0.7066749527432172  0.0548989009645742  0.8943344446244885   T   T   T
  0.3162057240799144  0.9304972121995214  0.0956190004890019   T   T   T
  0.7752404777776084  0.3928246149632726  0.3770647531668330   T   T   T
  0.2481892785829644  0.6441261280836800  0.6266256393410391   T   T   T
  0.2329742439204861  0.3829150876225905  0.3700282307548389   T   T   T
  0.7776177974653550  0.6459147370687595  0.6341558565287060   T   T   T
  0.0110042678072401  0.4006553869780485  0.6270929958819900   T   T   T
  1.0145713315270817  0.6131399203627440  0.3641436883608028   T   T   T
  0.2588551501814073  0.4263196738946358  0.0995440350190794   T   T   T
  0.7007816816866393  0.5064976022423504  0.8613243534914365   T   T   T
 -0.0121919551536734  0.1801633407871522  0.1419819338564840   T   T   T
  0.9196641371850923  0.7949285967303789  0.9339796048012661   T   T   T
  0.2390949735851757  0.5519884230380155  0.9000167112205305   T   T   T
  0.7351676196042803  0.4556055957606996  0.1122853414202930   T   T   T
