Sr Co O 
 1.0000000000000000
     0.0645305667324355    5.5853913547981096   -0.0222325362376493
    -9.3632592229056950   -0.1097453578970890    1.6801788459230389
    -1.7647698608648439   -0.0299456738260073    9.5679548521957951
 Sr  Co  O  
   8   8  20
Selective dynamics
Direct
  0.0063084451332110  0.7190732665924024  0.8568398592566435   T   T   T
 -0.0215980880595601  0.3032504270456283  0.1727821133690588   T   T   T
  0.0001346350150378  0.8524237381790043  0.4052197638233631   T   T   T
  0.0095052492603276  0.1202255461848509  0.6137771165347528   T   T   T
  0.4900365851318431  0.1933674912979032  0.8390908515960284   T   T   T
  0.5273782726921772  0.7657666224391247  0.1198441390002328   T   T   T
  0.4845728002128672  0.3948394050158610  0.4148231024164981   T   T   T
  0.4970886413387187  0.6269041589388041  0.6300961413825721   T   T   T
  0.0333316135067244 -0.0246714590672088 -0.0040207257828389   T   T   T
 -0.0090108304312070  0.4947184186500453  0.5275301973008208   T   T   T
  0.0016570563057250  0.5879048555062943  0.2579699522163349   T   T   T
  0.0067105332806704  0.4107433295240725  0.7891658242436581   T   T   T
  0.4830312575084572  0.4970950649724509  0.0193186902318974   T   T   T
  0.5044375621881066  0.0113175035794673  0.4741247024260021   T   T   T
  0.4436197966530853  0.1410351479220034  0.1785148203442662   T   T   T
  0.5177060733397316  0.9109700119328445  0.7482097136467745   T   T   T
 -0.0189776424158167  0.3797996939100391  0.4006712454663445   T   T   T
 -0.0140092154384231  0.6155464876599638  0.6479810488950932   T   T   T
  0.2235222437375859  0.6201413867413378  0.3995567638381681   T   T   T
  0.7683065686122091  0.3688149314493269  0.6729209515434553   T   T   T
  0.2311044165834459  0.3692871849732702  0.6536476726141084   T   T   T
  0.7599318779439562  0.6175628636239850  0.3931249136361445   T   T   T
 -0.0039844874574224  0.8032414964663346  0.1569396350537592   T   T   T
  0.2745057540277121  0.5335442746895360  0.1633171987365152   T   T   T
  0.1771270059298602  0.4520737320691680  0.9248865075596511   T   T   T
  0.7718239020715778  0.5496018471444115  0.1207848770657338   T   T   T
  0.5030431100338063  0.1198449348341833  0.6096857114369622   T   T   T
  0.6977331943101098  0.0701103055768093  0.3064592573969295   T   T   T
  0.2898846396944836  0.8769483906444199  0.6130439710816299   T   T   T
  0.7442088191098847  0.8962447717446230  0.6039653804813920   T   T   T
  0.2541433484453481  0.1027383123506694  0.3461594916097877   T   T   T
  0.6049419377365423  0.2976364281973888  0.0359370900623610   T   T   T
  0.5335886446362955  0.6944433716431335  0.8626719915630571   T   T   T
  0.2684776928359000  0.9442311106128960  0.8690986656008644   T   T   T
  0.7666503447637156  0.9733687433744592  0.8758421770784269   T   T   T
  0.1930677781447781  0.1178567220466922  0.0580188177058351   T   T   T
