Sr Co O 
 1.0000000000000000
    -0.0002467457831319    5.4937890959776450   -0.0576168427794124
    -9.7534900336547583    0.0215469256112002    1.2420735826622493
    -1.2682883966282357   -0.1055351619514917    9.5735597824338292
 Sr  Co  O  
   8   8  20
Selective dynamics
Direct
 -0.0001066730457319  0.7354061292757593  0.8637559775506271   T   T   T
  0.0207018851733186  0.2742233095953199  0.1533936072113146   T   T   T
  0.0031011629954547  0.8567159030339793  0.3505423428191577   T   T   T
 -0.0118312099720585  0.1082684054393421  0.6462581284547702   T   T   T
  0.4915068057558785  0.1872791844356178  0.9261134844711915   T   T   T
  0.5073763180147303  0.7900429649174899  0.1374592621499663   T   T   T
  0.5079259278546248  0.4020888813480420  0.3544025992801172   T   T   T
  0.4801034830409237  0.6467649249677988  0.6156992803782945   T   T   T
  0.0015269529971565 -0.0017895205897719  0.0082751437126939   T   T   T
 -0.0136758298336872  0.4968734893814453  0.4902217538292747   T   T   T
  0.0248567831566843  0.5874776253229138  0.2207306366968406   T   T   T
 -0.1133541135027053  0.4053721580104402  0.7684693065525746   T   T   T
  0.5349544341426982  0.5235189613384011 -0.0050455898033789   T   T   T
  0.4610410957259009 -0.0253621543063731  0.5079181102529989   T   T   T
  0.5073529586012036  0.0823727931128993  0.2475739896386275   T   T   T
  0.4925295546819800  0.9119405011143984  0.7807868006296428   T   T   T
  0.0217554908386497  0.3985979587517848  0.3469291659375305   T   T   T
 -0.0023343378656934  0.5786409109747276  0.6546516352232856   T   T   T
  0.2289148933776755  0.6173785100177190  0.3902896875987173   T   T   T
  0.7802021427869601  0.3533067464735786  0.5935670164473320   T   T   T
  0.7629524734571267  0.6234727785248020  0.3367214555971924   T   T   T
  0.0170858799880234  0.7816793317435263  0.1120777128333849   T   T   T
  0.0201587027145961  0.2547350852772802  0.8901145901547473   T   T   T
  0.3215703764941021  0.5487205981653027  0.1271475801571111   T   T   T
  0.5741897880872805  0.4455964156906102  0.8382862977600359   T   T   T
  0.8517707059063379  0.5277087250524072  0.0705462172238627   T   T   T
  0.5316823784135796  0.8916608702575507  0.3613210442348248   T   T   T
  0.2480829617373096  0.8755620848749520  0.6428958007093853   T   T   T
  0.7197894969757415  0.9063059458480552  0.6290859765636616   T   T   T
  0.2743450992892002  0.1159819845848275  0.3980182882676095   T   T   T
  0.5211750138772507  0.2698632492203119  0.1610739037760809   T   T   T
  0.5094971535961369  0.7131505445092570  0.8710253966613897   T   T   T
  0.7794803238683403  0.0446748386801344  0.1475322892176362   T   T   T
  0.2432221139561246  0.9928245146834636  0.8584512277543828   T   T   T
  0.7458438524650939  0.9897252491090136  0.8722764158088182   T   T   T
  0.2516058965927953  0.0262202032239366  0.1294338459318463   T   T   T
