Sr Co O 
 1.0000000000000000
     4.7756786617745686   -2.8123341132884141   -0.6397304756033865
    -4.8037215041516035   -2.8607417906334249    0.6184913904500535
     2.5963391788859860   -0.0610810161026494  -19.6839190193440139
 Sr  Co  O  
   8   8  20
Selective dynamics
Direct
  0.3044790513146962  0.7304101650948487  0.5812565529869295   T   T   T
  0.6942136524930133  0.2955445333158217  0.9288190063740809   T   T   T
  0.1508416803936769  0.8175910457014353  0.7845209350616246   T   T   T
  0.9164094260992315  0.1072037852760066  0.6726233956230394   T   T   T
  0.2417938356295576  0.7162810323594476  0.0656111529299528   T   T   T
  0.7226850388612365  0.3530031668142707  0.4645820961440084   T   T   T
  0.1321680335284903  0.9412107552926741  0.3343089685903229   T   T   T
  0.8593357102229978  0.1451028408579182  0.1846386944228503   T   T   T
 -0.0295157781736129  0.0486527711799248  0.0129813186564067   T   T   T
  0.4996624630411053  0.4497180498349929  0.7503506621775810   T   T   T
  0.3398084869874065  0.5285269632307449  0.8805133088949646   T   T   T
  0.6087272448479654  0.4089575359781163  0.6225207227427436   T   T   T
  0.0189640349932422  0.0222205811233700  0.5083841729625931   T   T   T
  0.4973769627697535  0.5547921563726105  0.2354193938370686   T   T   T
  0.4514982987694112  0.6897257937355989  0.3998934013064872   T   T   T
  0.5729578912418227  0.4310434354280400  0.1010577673289596   T   T   T
  0.3717631339809588  0.5512541135025604  0.6866044488464254   T   T   T
  0.1375611320602303  0.2946494206184835  0.8038481146500809   T   T   T
  0.8510816892605542  0.6216827840394169  0.6928752346070413   T   T   T
  0.4493495235666070  0.1186682317243883  0.6829781670157348   T   T   T
  0.6589974476973868  0.4955071255635990  0.8304501761641839   T   T   T
  0.3166751850031088  0.8405653543245802  0.8981283247075355   T   T   T
  0.8758581371347105  0.2775692839194194  0.5662858125044921   T   T   T
  0.1797444240883180  0.3308355770910792  0.9569654887030512   T   T   T
  0.7580532221294342  0.7116146702824034  0.5697270421219288   T   T   T
  0.3174961878562401  0.1734598782646065  0.5617710274398879   T   T   T
  0.4423345875561314  0.6828072281410994  0.1599568712316010   T   T   T
  0.8150463923723950  0.5511629594402531  0.1704126072491284   T   T   T
  0.2145420102974187  0.2355780351504804  0.2529692716690328   T   T   T
  0.5654924519838580  0.8357425898854157  0.3112823475597848   T   T   T
  0.1691006431436932  0.7811372891281877  0.4429421620019862   T   T   T
  0.6851279074160908  0.1580607252178571  0.0502794879250042   T   T   T
  0.3542737334878976  0.3506343532556720  0.4131980795728228   T   T   T
  0.7810282158728572  0.6828119067043450  0.0235244792772544   T   T   T
  0.2104975515462764  0.1761741066489347  0.0822785942305965   T   T   T
  0.7775702113894153  0.9230997252686372  0.4403908122964584   T   T   T
