Sr Co O 
 1.0000000000000000
     0.0114096133431272    5.6646211612698032    0.1228846686428740
    -9.5090145822729202   -0.0436322957596223    1.5751827007479473
    -1.6080898659019802    0.2265173459493503    9.3579650094824576
 Sr  Co  O  
   8   8  20
Selective dynamics
Direct
  0.0221170868854810  0.7367607350688125  0.8562051824150969   T   T   T
 -0.0319366078204546  0.2863062917798915  0.1643982285077197   T   T   T
  0.0054372546785194  0.8556596529912828  0.3788592462249272   T   T   T
  0.0013021527860080  0.1382369820355774  0.6112920355108368   T   T   T
  0.4859619088855454  0.1982418734084569  0.8396635905886510   T   T   T
  0.5191322562885402  0.7839540438204621  0.1444204663731290   T   T   T
  0.4896446011595133  0.3976479951758785  0.4008785406280294   T   T   T
  0.5041222829915153  0.6271010760959296  0.6167196601132854   T   T   T
  0.0086736998528914 -0.0047298586907083  0.0078898816495237   T   T   T
 -0.0004483415470044  0.4996395507557667  0.5150533170075874   T   T   T
 -0.0194698912068938  0.5878687382544356  0.2369564105114789   T   T   T
  0.0027993509018539  0.3927718083919865  0.7823593051982336   T   T   T
  0.4835545549949919  0.5067028710237061  0.0256386718949303   T   T   T
  0.4795351583998272  0.0119159404922036  0.5065082802469661   T   T   T
  0.4628456169739658  0.1138467682239130  0.2003697488268777   T   T   T
  0.5416663662551811  0.8961758113226214  0.7769284478153820   T   T   T
 -0.0147896754125224  0.3930003041155097  0.3806547724135276   T   T   T
  0.0170259990454435  0.5909656146301104  0.6774665330872773   T   T   T
  0.2254241896028062  0.6248310007672807  0.3647756410845353   T   T   T
  0.7571326568629069  0.3811687979820604  0.6533902077912070   T   T   T
  0.2372006664928620  0.3728503909892424  0.6316436677807818   T   T   T
  0.7699958479010562  0.6264514755624885  0.3929399577243060   T   T   T
 -0.0360763466950773  0.7864535077557507  0.1060770434003168   T   T   T
  0.0300676241341997  0.2202144223414737  0.9264743170031777   T   T   T
  0.1756760710359548  0.5329711892056024  0.0861793843018779   T   T   T
  0.7091119452222898  0.5262841084869591  0.1531101633507274   T   T   T
  0.5743539616600826  0.1551900318037987  0.5669912227805372   T   T   T
  0.2831045436204744  0.8602128505542699  0.5659826657760380   T   T   T
  0.7344725253177982  0.8954687214718284  0.6001893245283437   T   T   T
  0.2745708193460307  0.1354439957747606  0.3628989101171750   T   T   T
  0.5171087529753782  0.3070025891240642  0.0533191044852251   T   T   T
  0.5268194249109827  0.6793200201172079  0.8619883833805996   T   T   T
  0.7469479449288209  0.0300991536300993  0.2016619666582587   T   T   T
  0.2647089432471652  0.9658301620968565  0.8376318339395497   T   T   T
  0.7663135596637348  0.9855620325490156  0.8730368524365483   T   T   T
  0.2598931428974576 -0.0044203532146475  0.1367467856868131   T   T   T
