Sr Co O 
 1.0000000000000000
     0.1225789513536985    5.5702348997679403   -0.0332461531304978
     9.4042389231643693    0.2073931449295852   -1.5393785463385947
    -3.1603891957860482   -2.8425930854875534   -8.7889903520776649
 Sr  Co  O  
   8   8  20
Selective dynamics
Direct
  0.6214399824879492  0.8608567295957537  0.1601791364810769   T   T   T
  0.9271580622405211  0.6740802834336047  0.8696473614388102   T   T   T
  0.8012524587934327  0.9434624253949883  0.5897560317322342   T   T   T
  0.6931692895583674  0.5556881500591654  0.3940429664235938   T   T   T
  0.0778845250349554  0.3656084432990560  0.1628219591751333   T   T   T
  0.4234627400936741  0.1152656461499108  0.8452529239675887   T   T   T
  0.2636373758183545  0.4273732987511555  0.5984858694221331   T   T   T
  0.2057715561456255  0.0710459840926545  0.3903893266199454   T   T   T
  0.0511069925785674  0.0051368362547156  0.0257955929334497   T   T   T
  0.7330539551624585  0.2547528252465556  0.5049450093645169   T   T   T
  0.8166389708991196  0.3117606483160638  0.7661535342781730   T   T   T
  0.6293526555459564  0.2003605103797636  0.2330846978742084   T   T   T
  0.5422343434023025  0.5246244287056071  0.0023485810914084   T   T   T
  0.2430179598669970  0.7521962793775044  0.4955901671241087   T   T   T
  0.3382228448420503  0.7876626836450155  0.7712613329953225   T   T   T
  0.1640340419450365  0.7003910564058252  0.2324452250468462   T   T   T
  0.7573164903104421  0.4467616510211961  0.6286834685721387   T   T   T
  0.6972558371810780  0.0714431213105423  0.3826708549131702   T   T   T
  0.0309898189102399  0.2115359472147215  0.6616873753414034   T   T   T
  0.4505107257865819  0.3037202905945410  0.3582461831676891   T   T   T
  0.9118264333472578  0.3072882281892626  0.3771789798448609   T   T   T
  0.5407123692701089  0.1931768646243824  0.6176333819862091   T   T   T
  0.3305477744234762  0.1462525800825319  0.0858296417696407   T   T   T
  0.8483680548029273  0.1117458155266414  0.1247019334568397   T   T   T
  0.6886814275395228  0.3523507734635425  0.9246203009596194   T   T   T
  0.3567557509150580  0.9110750841029478  0.6349320142968479   T   T   T
  0.1813892292501551  0.5747339642998711  0.3737837384168365   T   T   T
  0.9926143764131029  0.8244679275727826  0.3532790129830592   T   T   T
  0.4577830759352267  0.7857652172495666  0.3837720221684277   T   T   T
  0.0605665687256973  0.7021720067097939  0.6146434362497987   T   T   T
  0.3651928617537339  0.6083069116654088  0.8412649662375032   T   T   T
  0.1583268002480799  0.8414778426011109  0.1132089075290100   T   T   T
  0.6146886858712088  0.8666030408898890  0.9015524292543254   T   T   T
  0.8534335722208506  0.6155378850089881  0.1006612720517626   T   T   T
  0.3643055720047921  0.5557174402742390  0.1358693412364801   T   T   T
  0.0786467577187855  0.9319509732970332  0.8442810401595561   T   T   T
