Sr Co O 
 1.0000000000000000
    -4.6507256058591704    2.7742014576121674    0.7542885785654976
    -4.7181618541809938   -8.4363270539427937    0.7374976080537345
     3.1166870617038893    2.8484101715023682    8.7009472059363304
 Sr  Co  O  
   8   8  22
Selective dynamics
Direct
 -0.0018350432815892  0.2927497020730698  0.8695793507783284   T   T   T
  1.0018350432815846  0.7072502979269321  0.1304206492216725   T   T   T
  0.0007485168712523  0.1438120340552469  0.3625015462767776   T   T   T
  0.9992514831287432  0.8561879659447553  0.6374984537232229   T   T   T
  0.4863460000381412  0.7726762375513505  0.8713359831133642   T   T   T
  0.5136539999618560  0.2273237624486507  0.1286640168866343   T   T   T
  0.5259902892462088  0.6203303680925674  0.3816573037306965   T   T   T
  0.4740097107537895  0.3796696319074350  0.6183426962693037   T   T   T
 -0.0000000000000001  0.0000000000000001 -0.0000000000000000   T   T   T
  0.4999999999999987  0.0000000000000009  0.4999999999999998   T   T   T
  0.5166415798668015  0.9256524736185402  0.2259681373528620   T   T   T
  0.4833584201331970  0.0743475263814616  0.7740318626471386   T   T   T
  0.4999999999999994  0.5000000000000016 -0.0000000000000000   T   T   T
 -0.0000000000000009  0.5000000000000008  0.5000000000000003   T   T   T
  0.0244905373092318  0.4181607361322358  0.2306393773498949   T   T   T
  0.9755094626907653  0.5818392638677662  0.7693606226501050   T   T   T
  0.7444037692322268  0.9024433258906042  0.3760225393481859   T   T   T
  0.2555962307677713  0.0975566741093990  0.6239774606518144   T   T   T
  0.5180794994461475  0.8844157322033818  0.6135053120184955   T   T   T
  0.4819205005538491  0.1155842677966208  0.3864946879815045   T   T   T
  0.7378720367318360  1.0027169853162003  0.1228936546489435   T   T   T
  0.2621279632681624 -0.0027169853161965  0.8771063453510579   T   T   T
  0.5109828973007291  0.7282183010101163  0.1353352882596217   T   T   T
  0.4890171026992684  0.2717816989898848  0.8646647117403762   T   T   T
  0.7831142048893134  0.0477536927975781  0.8513205663514379   T   T   T
  0.2168857951106841  0.9522463072024238  0.1486794336485625   T   T   T
  0.7806198070911150  0.3810872899914457  0.3558766061867771   T   T   T
  0.2193801929088811  0.6189127100085565  0.6441233938132239   T   T   T
  0.2415178616826759  0.3888361697625254  0.3761721602038930   T   T   T
  0.7584821383173205  0.6111638302374762  0.6238278397961069   T   T   T
 -0.0186599399459883  0.3809584888518291  0.6216052547051778   T   T   T
  1.0186599399459852  0.6190415111481735  0.3783947452948218   T   T   T
  0.2979197953094054  0.4739526107793777  0.1410624012821852   T   T   T
  0.7020802046905927  0.5260473892206253  0.8589375987178168   T   T   T
  0.0492251158938710  0.2181058666113176  0.1077528596771948   T   T   T
  0.9507748841061265  0.7818941333886844  0.8922471403228057   T   T   T
  0.2061904083274465  0.5402164549147156  0.8892297639943505   T   T   T
  0.7938095916725515  0.4597835450852874  0.1107702360056515   T   T   T
