Sr Co O 
 1.0000000000000000
     0.0114423838853172    5.4613598443247495    0.0135162523841762
     9.5912600153417866    0.0160122886384916   -1.3783746988456362
    -3.3386594288554949   -2.7522682929915123   -8.7042537112965768
 Sr  Co  O  
   8   8  21
Selective dynamics
Direct
  0.5725422535088497  0.8401472583458411  0.1525602140778131   T   T   T
  0.9562404501627607  0.6452217003412989  0.8754974644004934   T   T   T
  0.7869959737603355  0.9523245727054943  0.6036777268220520   T   T   T
  0.6844482015278742  0.5550684679885709  0.3776149453384572   T   T   T
  0.0764245488879566  0.3530419265733863  0.1480474435766932   T   T   T
  0.4153625533776010  0.1517692679928968  0.8416633339476552   T   T   T
  0.2755393438654651  0.4289249376138176  0.5995297064478523   T   T   T
  0.1765924089900186  0.0602392393547984  0.3822430845868334   T   T   T
 -0.0116717554501653 -0.0198318347395378 -0.0014623231111848   T   T   T
  0.7294500094949690  0.2508719419396288  0.4900530330974485   T   T   T
  0.8877534649073849  0.2993196659890435  0.7577045178913494   T   T   T
  0.6277020479808482  0.2018119448330937  0.2222360292297798   T   T   T
  0.4945577409796140  0.5037947763705385  0.0054289584308393   T   T   T
  0.2159937580680884  0.7570186206181676  0.5103088230390052   T   T   T
  0.3914060085013494  0.8074432057861228  0.7873291291074546   T   T   T
  0.1189706057458677  0.6977855363947019  0.2421887613144214   T   T   T
  0.7817221138472811  0.4302960774078932  0.6340232794120297   T   T   T
  0.6596848633401310  0.0736277366036310  0.3486146087865971   T   T   T
  0.0309460415172870  0.1867372300755585  0.6025757689304495   T   T   T
  0.4329632333762518  0.2971112946160217  0.3543833731922775   T   T   T
  0.9149849895431993  0.3195145517616551  0.3804974983238433   T   T   T
  0.5654451049046052  0.1962109519849211  0.6204439399698840   T   T   T
  0.9232434937358144  0.1872328901305861  0.8835362287645691   T   T   T
  0.5356930541314607  0.3196332955335511  0.0946953821141924   T   T   T
  0.2187735690023885  0.4089397486429239  0.8546982523342941   T   T   T
  0.8651981408341551  0.1000322940300134  0.1302570084325974   T   T   T
  0.3012559476283144  0.9258697094829286  0.6476727565097086   T   T   T
  0.1884047289176913  0.5772650852875535  0.3853499885689057   T   T   T
  0.9192903010192625  0.7937997113776014  0.3672595611176698   T   T   T
  0.4016034795650800  0.8120783532752108  0.3932816054498086   T   T   T
  0.0932496360088132  0.6955754448952586  0.6488828517145706   T   T   T
  0.4749938998553445  0.6632797937862472  0.8872292442070019   T   T   T
  0.0646170230784605  0.8370625747384980  0.1245231086737743   T   T   T
  0.7350755470587046  0.8756356387103448  0.8312363347616648   T   T   T
  0.8332255596704540  0.5653094026543558  0.0992596343737943   T   T   T
  0.3482504200132098  0.6009447870278044  0.1510509820647466   T   T   T
  0.2814216236194644  0.9512423447162499  0.9426081853489359   T   T   T
