Sr Co O 
 1.0000000000000000
     4.8765488967952164   -2.8176206335430924   -0.6351788418847506
     4.8336391367570988    8.3998554433237977   -0.6101996978805642
    -1.3042568194149029    0.0237288837235985    9.7458391363556363
 Sr  Co  O  
   8   8  20
Selective dynamics
Direct
  0.4769463448095547  0.1563969968206295  0.9118924697453114   T   T   T
  0.0507573164799510  0.4067668438639903  0.1659011173529014   T   T   T
  0.1112108167421067  0.0487137022816900  0.3339835312688381   T   T   T
  0.2993104343757178  0.4564241382692476  0.6045363803900282   T   T   T
  0.9147353083633384  0.6134667777873729  0.8646110746923267   T   T   T
  0.5488345841134827  0.8316669172683848  0.0999765436965229   T   T   T
  0.6938147186454469  0.6096458337811336  0.3692894920597566   T   T   T
  0.8511899787822741  0.9157076197348051  0.6331209750503172   T   T   T
 -0.0078747688000380 -0.0387986961140731 -0.0445216776372837   T   T   T
  0.7487622035291582  0.2647005766516591  0.5044855547646059   T   T   T
  0.5911179388137701  0.2429679851544267  0.2447315992821843   T   T   T
  0.9104528952131947  0.2929881354068375  0.8036298668807612   T   T   T
  0.4728204060925308  0.4883186502583740 -0.0131973317877922   T   T   T
  0.2625264236933538  0.7545634628433756  0.4838836932081116   T   T   T
  0.1214563386474729  0.7211062937699375  0.2240151926570248   T   T   T
  0.4080745632343438  0.7771220778574492  0.7627694522884948   T   T   T
  0.8570653637849505  0.3583973403296659  0.3650981562058141   T   T   T
  0.4191614006773507  0.2448122750206568  0.3919861487652158   T   T   T
  0.7464342561715451  0.3985320443475314  0.6577742103911314   T   T   T
  0.9375213194965943  0.1219419721953020  0.5383201871929534   T   T   T
  0.2186817467207775  0.3527373111332563  0.8172759692288236   T   T   T
  0.4387368541347662  0.3460918936645130  0.1067049365988681   T   T   T
  0.8925162212061318  0.1136016936025314  0.8556952772875276   T   T   T
  0.7466842301675777  0.3821257510447760  0.9372782517152058   T   T   T
  0.6935903261972626  0.0885387493648469  0.1557523352151529   T   T   T
  0.4097112188585627  0.8222175699499156  0.3456503349861702   T   T   T
  0.1149856189885110  0.7098427267423867  0.6311081136632974   T   T   T
  0.9736106905029642  0.8163613424453522  0.3763950939622274   T   T   T
  0.5502575215957427  0.7153674809010052  0.6040949785586329   T   T   T
  0.2161640990505154  0.5831751000635000  0.3570669682290847   T   T   T
  0.8172752192991291  0.6291580826942453  0.1374925427055478   T   T   T
  0.7166559058387181  0.8486128789187176  0.8650683552475296   T   T   T
  0.0875947835920262  0.8828500578944166  0.1161411024339268   T   T   T
  0.4570473446749980  0.6055064668711463  0.8461819393723241   T   T   T
  0.2540096984919959  0.9156034903083687  0.8612273633737748   T   T   T
  0.2681603746386997  0.6127684128529590  0.0799796626488060   T   T   T
