Sr Co O 
 1.0000000000000000
    -4.9502404928730774    2.7604480924545545    0.5704250350357326
    -4.9185696517243711   -8.2290127170595930    0.4637640064816366
     3.8197941867857961    2.8166672191568947    8.8458266812734259
 Sr  Co  O  
   8   8  20
Selective dynamics
Direct
 -0.0485854371100205  0.3040278869672722  0.8739120902965370   T   T   T
  1.0080255636948381  0.7006391031298572  0.1506955329775737   T   T   T
  0.0047884948303969  0.1471024947554575  0.3990193095721444   T   T   T
  1.0150810095289116  0.8485773025551345  0.6316591187385057   T   T   T
  0.5255753618157902  0.7765668107772403  0.8660785269002148   T   T   T
  0.4722131812644352  0.1952065630993694  0.1541626591851223   T   T   T
  0.4891946994700515  0.5804236668317461  0.3718828522010105   T   T   T
  0.5160685805579489  0.3887445826423758  0.6040458136298915   T   T   T
 -0.0174440594370749 -0.0069043661930608  0.0306768289416605   T   T   T
  0.4991824962042269 -0.0019696718878880  0.5106864440405913   T   T   T
  0.4938420714172912  0.8955135661855846  0.2182820650460237   T   T   T
  0.4355867121901795  0.1247057066130254  0.7788267130174105   T   T   T
  0.4729748192978475  0.4967031295766618  0.0210648909082469   T   T   T
 -0.0033212826748286  0.4952306231406763  0.4977716932722829   T   T   T
 -0.0142275990449119  0.4022703944489412  0.2273757724279224   T   T   T
  0.9928772271294101  0.5984438436286190  0.7636719777763313   T   T   T
  0.4004269567236650  0.8219634295819915  0.3525269684413574   T   T   T
  0.2168301448035257  0.0627416797041825  0.6005707188605822   T   T   T
  0.7160163737963544  1.0554960400080076  0.6800147210745772   T   T   T
  0.5799500111618325  0.0918952490684624  0.3922358713795792   T   T   T
  0.7228915478331801  0.9356760133295039  0.1220508805983725   T   T   T
  0.3507483324616358  0.0288585598230747  0.8849876994023850   T   T   T
  0.4011755807600978  0.6986919448635655  0.0578759877769147   T   T   T
  0.4469085575256487  0.3349391864221370  0.8342178506920264   T   T   T
  0.2099864211065453  0.9931273481111837  0.1786751250723090   T   T   T
  0.7747683162877478  0.3657906159636561  0.3482494691836194   T   T   T
  0.2331903122830352  0.6191909317127295  0.6525677073471925   T   T   T
  0.2240981331431266  0.3643137858532547  0.3711857663448657   T   T   T
  0.7499628468915540  0.6203087272870567  0.6036255993010469   T   T   T
 -0.0123846905254042  0.3873787158235168  0.6261666163565647   T   T   T
  1.0095716532922399  0.6081871901393564  0.3779302220866368   T   T   T
  0.2296744551718834  0.4397706873525314  0.1155471900686324   T   T   T
  0.8193749253273706  0.5618939675127367  0.8845977762715680   T   T   T
 -0.0716500593318919  0.1938982431576285  0.0726203939127335   T   T   T
  0.9743051024938563  0.8204033246409060  0.8662237936711445   T   T   T
  0.7454736081784614  0.4743428611095863  0.1236173388774361   T   T   T
