Sr Co O 
 1.0000000000000000
    -0.0000000000000001    5.5628806095174363   -0.0000000000000000
    -9.4562293706584768    0.0000000000000001    1.5148552147097905
    -1.5921549309390304   -0.0000000000000000    9.5849420283390021
 Sr  Co  O  
   8   8  21
Selective dynamics
Direct
  0.0000000000000000  0.7141781817378814  0.8730321248578021   T   T   T
 -0.0000000000000000  0.2905235679015921  0.1620001403604421   T   T   T
 -0.0000000000000000  0.8835573988167222  0.3619741975263727   T   T   T
 -0.0000000000000000  0.0964886385636590  0.6216344052589137   T   T   T
  0.4999999999999994  0.1844414564003409  0.8717746943557312   T   T   T
  0.4999999999999993  0.7930596020996996  0.1060734701695215   T   T   T
  0.4999999999999994  0.4053248369667740  0.3602420214789258   T   T   T
  0.4999999999999994  0.6358844692046912  0.6387568052152298   T   T   T
  0.0000000000000000  0.0085191877229382 -0.0132848996872114   T   T   T
  0.0000000000000000  0.5133670982717315  0.4976289691066713   T   T   T
 -0.0000000000000000  0.6148712347803592  0.2263605100275383   T   T   T
  0.0000000000000000  0.3992975972558651  0.8079954302587771   T   T   T
  0.4999999999999994  0.4981116112963954  0.0046585707902678   T   T   T
  0.4999999999999995  0.0090192229604131  0.4969368672678821   T   T   T
  0.4999999999999994  0.1102612504271769  0.2110906777052801   T   T   T
  0.4999999999999993  0.9072172222911288  0.7589453287668355   T   T   T
  0.0000000000000000  0.3552392775050807  0.4371109299082501   T   T   T
 -0.0000000000000000  0.5806941671298347  0.6548281240067473   T   T   T
  0.2446914255688242  0.6347822629202120  0.3756242929912884   T   T   T
  0.7553085744311742  0.6347822629202120  0.3756242929912884   T   T   T
 -0.0000000000000000  0.8185293495868194  0.1286842352016261   T   T   T
 -0.0000000000000000  0.2027443196870065  0.8301150954432630   T   T   T
  0.2447125771112581  0.5502201326081422  0.1252495838610692   T   T   T
  0.7194758734271788  0.4289076514459401  0.8826722016379179   T   T   T
  0.2805241265728204  0.4289076514459401  0.8826722016379179   T   T   T
  0.7552874228887396  0.5502201326081422  0.1252495838610692   T   T   T
  0.4999999999999994  0.1177310577656008  0.6357280119671478   T   T   T
  0.7292057016883611  0.1009193371323424  0.3619570189170234   T   T   T
  0.2736369939644993  0.8769964348058541  0.6155053344792064   T   T   T
  0.7263630060354973  0.8769964348058541  0.6155053344792064   T   T   T
  0.2707942983116391  0.1009193371323424  0.3619570189170234   T   T   T
  0.4999999999999994  0.3148859812030157  0.1526226598900911   T   T   T
  0.4999999999999993  0.6961633470780368  0.8663286625484310   T   T   T
  0.7452767419927443  0.0634647284539302  0.1056126741224559   T   T   T
  0.2506565684398651  0.9391545412666666  0.8774602263906609   T   T   T
  0.7493434315601321  0.9391545412666666  0.8774602263906609   T   T   T
  0.2547232580072563  0.0634647284539302  0.1056126741224559   T   T   T
