Sr Co O 
 1.0000000000000000
    -4.7226135997906047    2.8312149579793524    0.6291665302369083
    -4.5973279100718090   -8.2806823019183931    0.8052351486353514
     3.2129908640114890    2.5718654211322463    8.8228555603709395
 Sr  Co  O  
   8   8  22
Selective dynamics
Direct
 -0.0143471335313352  0.3035139610232016  0.8501461844410148   T   T   T
  1.0146083837251305  0.7066891701060334  0.1315359478622905   T   T   T
  0.0253704227110732  0.1077263488766161  0.3747807843628744   T   T   T
  0.9858885993739575  0.8820321447271812  0.6359249080544987   T   T   T
  0.4931706742924400  0.7839330297044804  0.8866550044335029   T   T   T
  0.4992828246229153  0.1952057138038891  0.1302354636925964   T   T   T
  0.5041282285157652  0.6292354475608644  0.3679523500698173   T   T   T
  0.4870901588138030  0.3944217347622719  0.6271016909835150   T   T   T
 -0.0076227945120891  0.0008916340353192  0.0036136933352523   T   T   T
  0.5088757892091901  0.0107443876227838  0.4987264806555283   T   T   T
  0.5290436086759289  0.9037412054920855  0.2355299064240816   T   T   T
  0.4692631899482691  0.1095818604862773  0.7855937399328120   T   T   T
  0.5054721256466402  0.4982924691950282 -0.0024779478713067   T   T   T
  0.0190742977003667  0.5125504258042552  0.5000623150950065   T   T   T
  0.0286764367514254  0.3980642678428945  0.2129949008736731   T   T   T
  0.9856539282044019  0.6019478742145283  0.7653867034869147   T   T   T
  0.2906337217643372  0.8745054894025379  0.3653342916075010   T   T   T
  0.7173509753027334  0.1070666747768279  0.6523339337638838   T   T   T
  0.7414734205189509  0.8864640143841058  0.3979505347081770   T   T   T
  0.2660784762650725  0.0955045276186286  0.6162544486036118   T   T   T
  0.5329707812384594  0.1155538410847985  0.3637226820915666   T   T   T
  0.7954823469977390  0.9397347975808449  0.1383371459761186   T   T   T
  0.1904134960812599  0.0693235913335993  0.8756077254605807   T   T   T
  0.5456026035928601  0.6945411649100339  0.1385389233447868   T   T   T
  0.4546891126867446  0.3138631820408699  0.8485926360646001   T   T   T
  0.6725768625496240  0.0405178923594942  0.8936731240101183   T   T   T
  0.2974241216758748  0.9380823622430194  0.1092861719545207   T   T   T
  0.2358375244784597  0.6461152314828850  0.6420050606686754   T   T   T
  0.2287794527882075  0.3847412175650543  0.3833701692102281   T   T   T
  0.7664731884814480  0.6199875105270535  0.6026535431478738   T   T   T
 -0.0021656000445684  0.4015117677915102  0.6290772278727321   T   T   T
  0.9707503676321982  0.5852549414279057  0.3462945022314591   T   T   T
  0.3084097414982752  0.4436163671513608  0.1325922518729632   T   T   T
  0.7189575162167289  0.5481338269747587  0.8580747612723373   T   T   T
 -0.0020473864424108  0.1954861269620008  0.1539939556629174   T   T   T
  0.9657057864570456  0.8035494742992640  0.8631379441438228   T   T   T
  0.2130351537956962  0.5672901832940684  0.9017970457175850   T   T   T
  0.7837896361200801  0.4174343191499904  0.0863097858237705   T   T   T
