Sr Co O 
 1.0000000000000000
    -4.8171339981311947    2.8719390518749144    0.4813758920284201
    -4.5495073078918065   -8.1276391517882125    0.8651870309391662
     3.4641521406460267    2.2840277681258176    9.0553065468129823
 Sr  Co  O  
   8   8  20
Selective dynamics
Direct
 -0.0255495969379987  0.2864466538698917  0.8809795301213086   T   T   T
  1.0178095399998786  0.6970738819419177  0.1338963603576259   T   T   T
  0.0293234712873550  0.0917020224846727  0.3526280593108037   T   T   T
  0.9797392446470049  0.9012597006578658  0.6412356381268052   T   T   T
  0.4901017454871209  0.8017008195761901  0.8862825435983192   T   T   T
  0.4958886413630909  0.1970306183741777  0.1234265966603258   T   T   T
  0.5100730310715982  0.6279107895198415  0.3792852178791838   T   T   T
  0.5033039145341895  0.3719046479484858  0.6169526135287031   T   T   T
 -0.0067394985680162 -0.0031695504663665 -0.0003224868794146   T   T   T
  0.5145104344785448  0.0103759448640859  0.4942952865842168   T   T   T
  0.5235733516860054  0.9176641874077610  0.2416064413123499   T   T   T
  0.4715937991063157  0.1105879737194532  0.7744342718889622   T   T   T
  0.4914013658777076  0.4830029544375328 -0.0089796693952584   T   T   T
  0.0356531249378440  0.5382111110169731  0.5027962024091439   T   T   T
  0.0212230921836081  0.3976800743077761  0.2209107326408102   T   T   T
  0.9923726440055571  0.6068827668262985  0.7866786017808869   T   T   T
  0.2972491737111898  0.8661473545520852  0.3526270095044762   T   T   T
  0.7177175845805278  0.1237927509648806  0.6560393033466417   T   T   T
  0.7444685349872534  0.8872341651427608  0.4024238101005650   T   T   T
  0.2689629620137267  0.0913687764829939  0.5964255346947097   T   T   T
  0.5548654782755474  0.1410697526104671  0.3636786521844137   T   T   T
  0.7636504579372972  0.9122377687547503  0.1297023556976793   T   T   T
  0.2258947851900670  0.0489711997636271  0.8598883138418844   T   T   T
  0.4031240788236136  0.3121258528677308  0.8348697180052500   T   T   T
  0.6993465162207442  0.0696246002883809  0.9058791176436904   T   T   T
  0.2812721822971320  0.9281638794088755  0.1022057608139575   T   T   T
  0.2379927351140291  0.6055264470229014  0.6666370409802846   T   T   T
  0.2198786777572045  0.3963203197741740  0.4006545567648120   T   T   T
  0.7780123087373885  0.5982895207428562  0.5990776809224553   T   T   T
  0.9301647731806200  0.5789970576689220  0.3377247582946438   T   T   T
  0.3108150850143778  0.4709781173521566  0.1475722979679790   T   T   T
  0.7457204218224543  0.5346805221427050  0.8585117688098978   T   T   T
  0.0364113114239438  0.1929382585553998  0.1404867586929417   T   T   T
  0.9391026042558828  0.8156175799629654  0.8571197243744274   T   T   T
  0.2445531165868357  0.5939163544460966  0.9329783064035303   T   T   T
  0.7682189237912080  0.4214350283695762  0.0847912665776131   T   T   T
