Sr Co O 
 1.0000000000000000
     4.7870430250384279   -2.7848384655383365   -0.6065903106271262
    -4.8254034111972501   -2.8187142213749636    0.6798574719803702
     2.6628042609637541    0.2663474396200665  -19.0530367192452523
 Sr  Co  O  
   8   8  20
Selective dynamics
Direct
  0.3665991707657677  0.7311660767616218  0.5523024665628155   T   T   T
  0.5885667920348647  0.2387685974953380  0.9591125715362933   T   T   T
  0.0553246539360113  0.7775821526510223  0.8222794113045775   T   T   T
  0.9515413391040008  0.0816354396957637  0.6700487643812517   T   T   T
  0.2205438080127294  0.7424460187531386  0.0879700071056605   T   T   T
  0.7510413626978368  0.3468914222109959  0.4384952902504491   T   T   T
  0.1659720036137685  0.9495271732774956  0.3166501941415779   T   T   T
  0.8459617687127584  0.1824805483352751  0.1976708112981545   T   T   T
 -0.0953816395687215  0.0070145544074967  0.0216706240141625   T   T   T
  0.4991718343435803  0.3732573434914632  0.7548121222000682   T   T   T
  0.2443250321322412  0.4407253506835719  0.8883124428499825   T   T   T
  0.6643091542909543  0.3939824473245494  0.6135446632309896   T   T   T
  0.0729937525921266  0.0457370003107172  0.4970363400383707   T   T   T
  0.5399409054178499  0.5853963640943840  0.2541848441432328   T   T   T
  0.4790953434662174  0.6714708687130183  0.3856307247339500   T   T   T
  0.5248245501075298  0.4337187910364763  0.1250258753475892   T   T   T
  0.5711552547714552  0.3954026871311707  0.8506942779571697   T   T   T
  0.1509236083978055  0.3689497401869972  0.7887335221035574   T   T   T
  0.4623049094841095  0.0932524956584695  0.6751742309218062   T   T   T
  0.8181485569359589  0.6309359803311920  0.7073982135122987   T   T   T
  0.2099170130781029  0.7361838022103786  0.9375227274563932   T   T   T
  0.9425642676910504  0.2800923387632075  0.5697534268873476   T   T   T
 -0.0157716833235127  0.1101511210093824  0.9285024267026069   T   T   T
  0.8006392014804001  0.6968876856734181  0.5682672260194598   T   T   T
  0.3699794077267480  0.1834969660732839  0.5535605275663615   T   T   T
  0.6864103846652805  0.5001721629669033  0.3175902255334424   T   T   T
  0.3438690718496648  0.6366588967767031  0.1936107919484001   T   T   T
  0.8302031590559302  0.6866098159950962  0.1800971448519654   T   T   T
  0.3853283024337723  0.2201410119977898  0.2041336434937890   T   T   T
  0.6338048168617650  0.9275310981953958  0.3158002653466327   T   T   T
  0.2101055935791557  0.7970331681455050  0.4280053207452146   T   T   T
  0.7249683821859161  0.2276938520635232  0.0737418681411662   T   T   T
  0.2820552391923126  0.3558907015337508  0.4275764094541580   T   T   T
  0.6533085157089762  0.6637713117963173  0.0473820184879259   T   T   T
  0.2073901355712169  0.1724381755593222  0.0741496819565871   T   T   T
  0.7638661283487083  0.9029068825202213  0.4485589804918071   T   T   T
