Sr Co O 
 1.0000000000000000
     4.8382375203424219   -2.8405432907444674   -0.7731698669929408
    -4.7636509869796235   -2.7424091475336905    0.6230132064519266
     2.8697878581090124   -0.4821291482426145  -19.1035938944742192
 Sr  Co  O  
   8   8  20
Selective dynamics
Direct
  0.3105690242879154  0.7167046622998902  0.5744982265743345   T   T   T
  0.7549886385893897  0.3198614354209305  0.9477405501418691   T   T   T
  0.2176692039453299  0.8642376168147372  0.7991769582702116   T   T   T
  0.9185635890592954  0.1016117151573690  0.6835459592048398   T   T   T
  0.2581174579293464  0.7058578376422360  0.0784440826653622   T   T   T
  0.6604897637548087  0.2455227838955068  0.4290948424523887   T   T   T
  0.0697664139795759  0.8032504127898086  0.2913165676185286   T   T   T
  0.8256981373156151  0.0605741101862717  0.1814381702622535   T   T   T
 -0.0101539699617919  0.0049642951776707  0.0125833523509366   T   T   T
  0.5584900368041090  0.4877472167999656  0.7491018152062942   T   T   T
  0.5617905825409496  0.6770789180546531  0.8843770803656054   T   T   T
  0.6111857248119864  0.4254719600801919  0.6180866131053588   T   T   T
 -0.0400583871316054 -0.0368133671694953  0.4872691911542333   T   T   T
  0.4301852204105953  0.4439054329739605  0.2513885403060511   T   T   T
  0.3265607139710192  0.5753747857179370  0.3951182222751389   T   T   T
  0.5545097542927846  0.3831231361868651  0.1188347696620340   T   T   T
  0.6176957730726464  0.3724303303983432  0.8279211570356582   T   T   T
  0.3670129924982418  0.5635630193614114  0.6989978685804125   T   T   T
  0.8992907547455052  0.5862355998847937  0.6700744111806395   T   T   T
  0.4383667420603271  0.1334572556364803  0.6910384754078213   T   T   T
  0.6856001661254054  0.8574420001885968  0.7976389892871401   T   T   T
  0.2585438448152478  0.6847295773020885  0.9381714566849775   T   T   T
  0.7944555003563272  0.7756461195447242  0.5697132085967107   T   T   T
  0.3807348671876982  0.2043111756382616  0.5572568185799729   T   T   T
  0.8974369710723915  0.9177591397368393  0.9217893103519005   T   T   T
  0.3672008780235546  0.5943244885842957  0.1786735235963578   T   T   T
  0.1055585625292647  0.3292476223266565  0.3239216394916975   T   T   T
  0.7829491580499319  0.5182285965819897  0.1920824200959260   T   T   T
  0.2996244792529465  0.1023458604696363  0.1868217021581961   T   T   T
  0.5857018460554215  0.7678176139954904  0.3123788991042803   T   T   T
  0.1787733555256070  0.8468087356126668  0.4136050736193104   T   T   T
  0.7398547615862073  0.1608312447077309  0.0643248651986337   T   T   T
  0.0724956584251803  0.3355948693930807  0.4731294420232426   T   T   T
  0.8213614473833548  0.6916396473813916  0.0641080173498178   T   T   T
  0.3176749317924720  0.2475813303754259  0.0444870366071206   T   T   T
  0.6102954125626751  0.7545325378368546  0.4472009516274276   T   T   T
