Sr Co O 
 1.0000000000000000
    -4.7982009616741088    2.7609907446115289    0.6134200354019180
    -4.9379403544101645   -8.4548589496810465    0.6436714996997488
     3.5711660958735196    2.8029567346925308    8.7575941806582414
 Sr  Co  O  
   8   8  20
Selective dynamics
Direct
  0.0468631224077667  0.2632456910026534  0.8488355961503105   T   T   T
  0.9510216836763367  0.7393850897506111  0.1377909828458655   T   T   T
 -0.0036952991295882  0.1163830747682426  0.3967251338002343   T   T   T
  1.0212725147481123  0.8822917048440303  0.5955812794077809   T   T   T
  0.5112452203248787  0.7813660115645334  0.8185264673450884   T   T   T
  0.5116482975893534  0.1785828804155743  0.1152530144730140   T   T   T
  0.4900715469562250  0.6504379744572951  0.3856778956505992   T   T   T
  0.5396348010805150  0.3428002368507401  0.6195721806046520   T   T   T
  0.0296995626198983 -0.0296268719545256 -0.0471222943734096   T   T   T
  0.5076615962197252 -0.0040151147913768  0.4883994527645124   T   T   T
  0.4582143999265302  0.9213218363133919  0.2232380835667289   T   T   T
  0.5304719617010315  0.0829399778621406  0.7574704929278835   T   T   T
  0.5207171409322381  0.4880773081343255 -0.0264376910886604   T   T   T
  0.0668314862275693  0.4870311115205880  0.5027087411515229   T   T   T
 -0.0456159433465614  0.4431735808801764  0.2295370752379641   T   T   T
  1.0178254731850052  0.5784226580352518  0.7927119305645994   T   T   T
  0.2619010210137533  0.8722115918435138  0.3499293811341684   T   T   T
  0.7536805840487004  0.1105132875997840  0.6265353767608596   T   T   T
  0.7189047025466004  0.8784520409925353  0.3507394490308029   T   T   T
  0.2866261183928210  0.1082173764942641  0.6205001881061177   T   T   T
  0.5315369096373639  0.8801512143326702  0.6130074448827001   T   T   T
  0.4867591319614381  0.1258836896088821  0.3812358617260630   T   T   T
  0.6530862792555746  0.9129135158946808  0.0854186718498580   T   T   T
  0.2886179169669192  0.0386525369951207  0.8690372826907330   T   T   T
  0.5267632784378835  0.2910878562644930  0.8678961943215964   T   T   T
  0.7862119903717670  0.0694470021894903  0.8986618141874136   T   T   T
  0.1732369157766730  0.9762292035363528  0.1283225803909998   T   T   T
  0.3605160335991023  0.5619151056231789  0.5818608544324886   T   T   T
  0.0275844190209805  0.3912757528416593  0.6328920407800168   T   T   T
  1.0252614966331617  0.6182576969857202  0.4055637027769106   T   T   T
  0.1877692416852653  0.3557229041266102  0.1211924329320473   T   T   T
  0.7138814886771859  0.5659157640175976  0.8654633499443528   T   T   T
 -0.1512092933998755  0.3532154910303067  0.3589390692539849   T   T   T
  1.0050313862880222  0.7733404077578435  0.8011354980591022   T   T   T
  0.2324721449323297  0.5756913356132947  0.9520002544789050   T   T   T
  0.6965006413705541  0.5280890044132566  0.1531999574405234   T   T   T
