Sr Co O 
 1.0000000000000000
     4.7199259294924714   -2.7696424887271940   -0.7101408927537364
     4.8007563721003992    8.4385442026281758   -0.6750604164200247
    -1.5111666200221985    0.0322069196959839    9.4862575518800707
 Sr  Co  O  
   8   8  20
Selective dynamics
Direct
  0.4280289018108422  0.1177607037071547  0.8403134726512642   T   T   T
  0.0921425136548823  0.3627541011702762  0.1772448704456572   T   T   T
  0.1917196464559609  0.0243439767540409  0.3613756906929130   T   T   T
  0.2888613681861735  0.4605907651906858  0.6057132153472669   T   T   T
  0.9011418490588863  0.6682477242897183  0.8369057657816763   T   T   T
  0.5564156840830201  0.8385875496133729  0.1116671681097963   T   T   T
  0.6954476877491171  0.5887902845161155  0.3953911373676093   T   T   T
  0.7938809128429349  0.9201888355727568  0.5907073702458392   T   T   T
 -0.0038752477072616 -0.0030369339112928 -0.0221990169251271   T   T   T
  0.7447133977135367  0.2576302752059264  0.5210698116893120   T   T   T
  0.5846108023316692  0.1966334148506642  0.2601379486611385   T   T   T
  0.8786842678394695  0.3169475402318002  0.8264827873748924   T   T   T
  0.4627056321177610  0.5006690013081654 -0.0353697167059996   T   T   T
  0.2474016973625442  0.7502786466618003  0.4808511149861797   T   T   T
  0.1477012991659293  0.6956632373892889  0.2172357673100666   T   T   T
  0.3587700672166774  0.8014709792007826  0.7467613560690747   T   T   T
  0.8182212570711911  0.3401042016019037  0.3483411004931284   T   T   T
  0.7372957990022296  0.1708379961340958  0.6788500007159706   T   T   T
  0.3793239084355845  0.2701823420345445  0.3977768618963701   T   T   T
  0.7975592042777825  0.4212819805736392  0.6547131148775063   T   T   T
  0.7683160486030235  0.0846398776084296  0.4031773839577682   T   T   T
  0.3607636457182835  0.0890545254582798  0.1156730611841345   T   T   T
  0.2558520632835592  0.3544646525593084  0.8486150099320493   T   T   T
  0.8874112019307567  0.1851371705931352  0.9673527101855167   T   T   T
  0.8022605130851502  0.4648533780642052  0.9645930448457771   T   T   T
  0.4412300659284559  0.8099688568828369  0.3622660367713498   T   T   T
  0.0700150386669066  0.6964478820029772  0.6101713039423299   T   T   T
  0.9491823869003753  0.7883813033950612  0.3356403549923647   T   T   T
  0.5354598764396254  0.6990901810785897  0.6195291329511446   T   T   T
  0.2995145015829744  0.9295177691058792  0.6010672441848081   T   T   T
  0.1948459993882655  0.5727725482323394  0.3625337769155563   T   T   T
  0.6584329698579097  0.9034084995927975  0.8797027205690886   T   T   T
  0.0586663009714914  0.8277761959788417  0.0921979441838204   T   T   T
  0.4032933191329237  0.6602321135229569  0.8721013248348253   T   T   T
  0.1400136384941798  0.9115214079639107  0.8331865097965555   T   T   T
  0.3794915580254858  0.5753070973733592  0.1349225273864458   T   T   T
