Sr Co O 
 1.0000000000000000
     4.7052383091527243   -2.7256219816207139   -0.6924345161321891
     4.8037399799363021    8.3080347901371354   -0.6983115414325712
    -1.4674843593795885   -0.0146246566936267    9.5410624852811843
 Sr  Co  O  
   8   8  21
Selective dynamics
Direct
  0.4187762292126205  0.1427176257936237  0.8855240493159474   T   T   T
  0.0730200484703999  0.3689873664637887  0.1501799554555923   T   T   T
  0.2043469982652068  0.0583447117968678  0.3723947415578556   T   T   T
  0.3200689768382293  0.4583692511329381  0.6234282455108471   T   T   T
  0.9319166293561538  0.6490045520379226  0.8437932655454333   T   T   T
  0.5196142335596687  0.8361623900986285  0.1017080861762867   T   T   T
  0.6903564290200598  0.5405112964065026  0.3819419224174796   T   T   T
  0.8256557888565221  0.9261111820747854  0.6219763306614488   T   T   T
 -0.0050395739198487 -0.0068849185689263 -0.0091073660111745   T   T   T
  0.7706279756249887  0.2457182818699490  0.5138220857202108   T   T   T
  0.6098429766286929  0.2009046310331949  0.2486849486357091   T   T   T
  0.9185893545319236  0.3094889932271833  0.8014656333917957   T   T   T
  0.5057007085472178  0.5014482689902400  0.0004411424163918   T   T   T
  0.2727575204844135  0.7454581191852193  0.4839012335502042   T   T   T
  0.0908654975043584  0.7000652505530170  0.2123705066479094   T   T   T
  0.3888980389541625  0.8010900671700801  0.7491430201647756   T   T   T
  0.9199320787018904  0.2945476264561996  0.3572927030937104   T   T   T
  0.4555992813713565  0.3006015317895797  0.4153448186930040   T   T   T
  0.0014144523681951  0.1753319280422445  0.6601028233934393   T   T   T
  0.8172384192099560  0.4165475139371627  0.6422117940093416   T   T   T
  0.7110077225801223  0.0677061364974109  0.3885867753891347   T   T   T
  0.3426166338699889  0.0837686271248124  0.1347354699715197   T   T   T
  0.2610850901218256  0.3858717018018816  0.8526807659904572   T   T   T
  0.5454086055804314  0.3383623661211661  0.1314633375174491   T   T   T
  0.9311864134767794  0.1705490712664681  0.9337538599340224   T   T   T
  0.7652017906615587  0.4277384008906825  0.9135829646662730   T   T   T
  0.3805568050713209  0.8027224989390213  0.3345839487392401   T   T   T
  0.0953396241224772  0.6972068495290880  0.6143582260156508   T   T   T
  0.5682069818196849  0.6967988961454775  0.6148392254430999   T   T   T
  0.3161979040429344  0.9256362414650817  0.5984005706923745   T   T   T
  0.1779590783678174  0.5770110786636550  0.3603282580382089   T   T   T
  0.7684347270330545  0.6184375613290954  0.1567834397162064   T   T   T
  0.6715260398744303  0.9185075353316151  0.8591148198292435   T   T   T
 -0.0095847295026653  0.8710543881952775  0.1260128088774991   T   T   T
  0.4601519243566885  0.6598589120071549  0.8618243119654238   T   T   T
  0.1786608159861142  0.8980792824052064  0.8576597831765391   T   T   T
  0.2518620560894652  0.5961648838552823  0.0779710841293357   T   T   T
