Sr Co O 
 1.0000000000000000
     4.9174813413487293   -2.7107301305845959   -0.5403698017437155
     4.9825032524581738    8.2248981722905370   -0.6331086831372934
    -1.1309955228710837   -0.0696416548847958    9.4526469687884944
 Sr  Co  O  
   8   8  20
Selective dynamics
Direct
  0.4356316815668448  0.1464560817249728  0.8885118366058127   T   T   T
  0.0766608161553003  0.3607289231086237  0.1532177639013807   T   T   T
  0.1765902007298808  0.0781502883042884  0.3688383235432009   T   T   T
  0.2755893543319241  0.4085711219009469  0.6084855928127100   T   T   T
  0.8806216476020795  0.6256810120629861  0.8447995905300182   T   T   T
  0.5953918059268050  0.8945070277588417  0.1525003221642980   T   T   T
  0.6881695999453484  0.5377475688579441  0.3844215796206525   T   T   T
  0.8238632781227819  0.9342332298100828  0.6174040299354904   T   T   T
  0.0375325989657819  0.0025133449763782  0.0217559567341342   T   T   T
  0.7344391265786673  0.2407285059057833  0.4979539752985506   T   T   T
  0.6065587110685370  0.2138761766461836  0.2310375882309618   T   T   T
  0.8769297076743718  0.2755556756173240  0.7501527474324903   T   T   T
  0.4763224102345491  0.5363989790786335  0.0374671841254752   T   T   T
  0.2399267534249799  0.7254419556758327  0.5059365961854595   T   T   T
  0.0718090667830942  0.7088870076560448  0.2290971184207899   T   T   T
  0.3518930117430663  0.7807693818119188  0.8111728160940227   T   T   T
  0.8894196887317312  0.2926835183590251  0.3555164686804163   T   T   T
  0.5902975480446289  0.1866132140714290  0.6641762806655646   T   T   T
  0.4473926456506152  0.3090726158523606  0.3833375823183153   T   T   T
  0.0364888418244312  0.1691884964121669  0.6030681542929779   T   T   T
  0.7936635612809612  0.4216163614982772  0.6219063700801072   T   T   T
  0.6586904433135374  0.0732301874573972  0.3687069562753647   T   T   T
  0.3097123648250195  0.1267178941356946  0.1240611004602656   T   T   T
  0.5705801830224611  0.3687503028438260  0.1094495852665174   T   T   T
  1.1106909515703631  0.3409812000568994  0.8860584451220014   T   T   T
  0.7965220557347569  0.1120908840177939  0.0897346527331460   T   T   T
  0.0989058209900259  0.7051195711942391  0.6682211179792087   T   T   T
  1.0159991185596009  0.8378268152467461  0.3987636791258425   T   T   T
  0.5574679742579121  0.7348162657669746  0.5510723766265102   T   T   T
  0.1493725677486060  0.5683577871377519  0.3610942788031273   T   T   T
  0.7203443969519598  0.6497284807450233  0.1583234315614654   T   T   T
  0.6355456748073467  0.8645545025981799  0.8805278699920416   T   T   T
  0.1324419485957530  0.8684556087483408  0.1533481704568839   T   T   T
  0.4485683238022433  0.5919615177536373  0.8499878704528513   T   T   T
  0.1519178159023819  0.9455135432374413  0.8503874658009266   T   T   T
  0.1695479682602988  0.5909748086324411  0.0782050365545733   T   T   T
