Sr Co O 
 1.0000000000000000
    -4.8769250764529604    2.6267561901384306    0.6420009045669937
    -5.0391757092594922   -8.1484740138963385    0.5429089365108298
     3.6734512440012894    2.8407871639135682    8.8390130701584582
 Sr  Co  O  
   8   8  20
Selective dynamics
Direct
  0.0199224426011075  0.2930050508710504  0.8534283269994121   T   T   T
  1.0211536730930497  0.7220752339179236  0.1141283365607107   T   T   T
 -0.0167734586377652  0.1246482982771212  0.3969798232496831   T   T   T
  1.0060326556902492  0.8653366051888211  0.6380152996552472   T   T   T
  0.5310427979098574  0.7809896749270147  0.8480189004258361   T   T   T
  0.5043612649299551  0.1985831543585441  0.1304875713991216   T   T   T
  0.4512338839180537  0.6370299741691711  0.3851686233876448   T   T   T
  0.5139633927804506  0.3754269269398774  0.6249599531836598   T   T   T
  0.0296177658449067 -0.0084214275168962 -0.0143098747760952   T   T   T
  0.4845675345837940  0.0077830845969220  0.5124907290703540   T   T   T
  0.4771908811262424  0.9222085517737899  0.2361363296515108   T   T   T
  0.5111307868638432  0.0796440238279354  0.7720616980995988   T   T   T
  0.5362673507189138  0.5210635431059317 -0.0074233444195964   T   T   T
 -0.0302418620185027  0.5045354225141695  0.4911587573932761   T   T   T
 -0.0700557597705838  0.4457158669016718  0.2145481958551859   T   T   T
  1.0264885826320733  0.5770864723843863  0.7560932693729679   T   T   T
  0.2597194281166810  0.8924827049801561  0.3633838437071504   T   T   T
  0.7456911674592182  0.1064960041784332  0.6496469695553028   T   T   T
  0.2895054070769771  0.1521419535414220  0.6591973243820763   T   T   T
  0.4833469834188308  0.8714182308041784  0.6058615414580409   T   T   T
  0.5221738087087047  0.1186117802817576  0.3974729600986400   T   T   T
  0.7224943284666911  0.9481191804721465  0.1414588143733898   T   T   T
  0.2617904598344085  0.0658516171463722  0.8871046952539410   T   T   T
  0.5107375693414040  0.7064627351401130  0.1521976065218325   T   T   T
  0.7507100133966316  0.0329427527789285  0.8942487034168848   T   T   T
  0.1985906887921828  1.0334033989173295  0.1590591049485650   T   T   T
  0.7564075604584373  0.3830311991242230  0.3371097369408170   T   T   T
  0.2383106346309208  0.5984732453688156  0.6182177555892424   T   T   T
  0.7779460361190038  0.6380331587661119  0.6433032286496191   T   T   T
 -0.0157118997873589  0.3791851072872251  0.5983419044565371   T   T   T
  0.9831787993273241  0.6259592157802946  0.3807659804889935   T   T   T
  0.2054895193854672  0.4353245996363217  0.1339082104562690   T   T   T
  0.7846257809861381  0.5464322828433006  0.8749159658529206   T   T   T
  1.0835270107264450  0.7794109982743082  0.8918954114612409   T   T   T
  0.2842646130717325  0.4987732073855948  0.8565222281653333   T   T   T
  0.7166001583638143  0.3760362536356008  0.0500454529380433   T   T   T
