Sr Co O 
 1.0000000000000000
    -4.7806202640388280    2.7281051052702003    0.7538691180222993
    -4.8278086935238225   -8.2257011757575302    0.6966559160308929
     3.2277647808768872    2.7865006575522555    8.7711943817514424
 Sr  Co  O  
   8   8  20
Selective dynamics
Direct
  0.0127844636105261  0.2881550425566555  0.8520589435458314   T   T   T
  0.9953513725151584  0.6749439225390591  0.1237476336654468   T   T   T
 -0.0392302909238183  0.1520580602256663  0.4063077345467004   T   T   T
  1.0128680283211116  0.8758290338552835  0.6109080150961486   T   T   T
  0.5179577700892042  0.7759880883882621  0.8506912786677702   T   T   T
  0.5060406296500269  0.2223642364532848  0.1154514437186913   T   T   T
  0.5003448682094183  0.6247450578196910  0.4075457663585028   T   T   T
  0.5130783751380764  0.3783874326799131  0.6531725130339714   T   T   T
  0.0192634271385283  0.0038972523934649 -0.0250156444335635   T   T   T
  0.4466405445197413  0.0131160096256487  0.4853979552167425   T   T   T
  0.4305220587788678  0.9118307163419005  0.2264816914743961   T   T   T
  0.5168440204752568  0.0801359908316908  0.7529959552011666   T   T   T
  0.5067234855795723  0.5013072614542138  0.0009806043330268   T   T   T
 -0.0035397594664280  0.5136038715455673  0.5102795487690178   T   T   T
 -0.0263470702642782  0.4011621977458982  0.2296239835249503   T   T   T
  1.0194736936479083  0.5935522998801479  0.7757159824446508   T   T   T
  0.1860530237443981  0.9032176699772568  0.3609373384183503   T   T   T
  0.7124484452180414  0.1107721304796253  0.6002554328378772   T   T   T
  0.2562614333700809  0.1305829565682035  0.6427834356819541   T   T   T
  0.4840932237702085  0.8852221316927575  0.5933610154754734   T   T   T
  0.4857009095723286  0.1079593200395474  0.3419129280247688   T   T   T
  0.3115304703754973  0.0332384671143537  0.8920245825176010   T   T   T
  0.5258398303094460  0.7357877939297848  0.1088120078201958   T   T   T
  0.5542522570748210  0.2799710199169066  0.8795352614918450   T   T   T
  0.7831097341318640  0.0130237691815900  0.8394797524935069   T   T   T
  0.7707015456344758  0.3876989414502212  0.3799341999674329   T   T   T
  0.2489205410837183  0.6222087989490012  0.6355541065983317   T   T   T
  0.7860619439177741  0.6462708306053589  0.6487471939791687   T   T   T
  0.0112326702154669  0.3939040692691403  0.6257892372063038   T   T   T
  1.0339988458615383  0.6040190439051064  0.3718595063526181   T   T   T
  0.2042950176674018  0.4224319181909482  0.1118554528832203   T   T   T
  0.7801662592180820  0.5362260144053214  0.8778874451672157   T   T   T
 -0.0222189522968887  0.1761667284745417  0.1424570767710936   T   T   T
  1.0318409630657444  0.8004946930689554  0.9332411804045549   T   T   T
  0.2699001833913487  0.5267605579967591  0.8763806550042065   T   T   T
  0.6933361512049133  0.4812667394036593  0.1514486349627317   T   T   T
