Sr Co O 
 1.0000000000000000
    -4.8265621790771362    2.7835395977571151    0.6356659746353592
    -4.7281982714780080   -8.1840962394002581    0.5625015913965897
     3.4647273823560623    2.7702171178177308    8.7753988408739403
 Sr  Co  O  
   8   8  20
Selective dynamics
Direct
  0.0127833934499123  0.3116634709600145  0.8693092793485865   T   T   T
  1.0036813229731107  0.6975874324831197  0.1496684701486302   T   T   T
 -0.0074942100790241  0.1306938474104802  0.4086522839158256   T   T   T
  0.9942895499065549  0.8444944107737663  0.6054527370804349   T   T   T
  0.4873921232283931  0.7842228644483847  0.8505280057423238   T   T   T
  0.4851062823344319  0.2294003888113965  0.1468128361675203   T   T   T
  0.4849112771689122  0.6133933501303610  0.3980399521335840   T   T   T
  0.4999374781597049  0.3925530588328958  0.6168572177068576   T   T   T
  0.0092721723368993 -0.0084369803457706  0.0275279123089982   T   T   T
  0.5082206266421979 -0.0153385872395272  0.4930741860783498   T   T   T
  0.5226828081594507  0.9078411470296947  0.2255705231555213   T   T   T
  0.5017470385740124  0.0844679043734380  0.7459757991796414   T   T   T
  0.5001302674643154  0.5152429623092887  0.0050457946578211   T   T   T
 -0.0163621532370721  0.4837031807541576  0.5004989237281718   T   T   T
 -0.0188420641434649  0.3965769470574855  0.2287036189132129   T   T   T
  0.9849202011542422  0.5999282027402264  0.7717413050328989   T   T   T
  0.2784477297624143  0.8908597830974047  0.3397596909084725   T   T   T
  0.7667475609998434  0.0997833411075971  0.6476078570640900   T   T   T
  0.7212750947932411  0.8620722453264070  0.3673484404785264   T   T   T
  0.3108960377303509  0.1411818750469987  0.5979635074513839   T   T   T
  0.4640877396357552  0.8692135070419457  0.6278290947360098   T   T   T
  0.7918855974168716  0.9411852090337608  0.1476863494111766   T   T   T
  0.3226871822859581  0.1179551234585205  0.8907927307138710   T   T   T
  0.3246130061041401  0.9597571652127347  0.1000672821875759   T   T   T
  0.7369016202715349  0.3574907055768946  0.3754883252336775   T   T   T
  0.2181715487580831  0.6120364193586764  0.6385974861434055   T   T   T
  0.2076975641996971  0.3523852638582443  0.3709909255929683   T   T   T
  0.7627956014383322  0.6152777217313367  0.6210514056295664   T   T   T
 -0.0193331748026438  0.3892986760117380  0.6418743076069586   T   T   T
  0.9936314104117112  0.5959456172164723  0.3739229337160285   T   T   T
  0.2985103302935528  0.4736873152106877  0.1289669900147842   T   T   T
  0.7090933813687419  0.5595058926404916  0.8816661325402554   T   T   T
 -0.0460439715994470  0.1954996345398818  0.0855601365850373   T   T   T
  0.9716214106695199  0.8254197639437556  0.8582252818735854   T   T   T
  0.2358590904767299  0.5749565333005114  0.9148576125150193   T   T   T
  0.7592295811033402  0.4526443289789429  0.0935843324820968   T   T   T
