Sr Co O 
 1.0000000000000000
     4.7802438694613185   -2.7901895792106757   -0.6830939536912459
     4.7143751896422970    8.2407380402443042   -0.7674347078107021
    -1.4688566124837377   -0.0660608303569382    9.4631601607107090
 Sr  Co  O  
   8   8  20
Selective dynamics
Direct
  0.4438376031947156  0.1351837867823418  0.8428984420752570   T   T   T
  0.1020935891884730  0.3830003111054822  0.1631045203409563   T   T   T
  0.1727630011609883  0.0559315063947430  0.3881982748749313   T   T   T
  0.2843928854173103  0.4546751601292432  0.6015539520930869   T   T   T
  0.9701111886313004  0.6696099750051856  0.8906554051042922   T   T   T
  0.5775865572228077  0.8425901950416961  0.1473026244225661   T   T   T
  0.6795132908713777  0.5727926757442818  0.3688901729954905   T   T   T
  0.8072118679739603  0.9096503255200825  0.6041364276824054   T   T   T
 -0.0018346202193726 -0.0110901544120546  0.0029421871067506   T   T   T
  0.7216052071434231  0.2322477924342144  0.4845884114058300   T   T   T
  0.6456290165213631  0.2199896127591763  0.2144056611390704   T   T   T
  0.9091975832117573  0.3031904035099550  0.7542703595377113   T   T   T
  0.4938348943381791  0.5120767954806722  0.0024920974388164   T   T   T
  0.2569877129196415  0.7526800441651582  0.5112524794322690   T   T   T
  0.1149700346818566  0.7114582760386443  0.2461114922520493   T   T   T
  0.4164163479973430  0.8003098906552861  0.7755211397788745   T   T   T
  0.9122748081906776  0.3332868243871226  0.3904331451935324   T   T   T
  0.4396622227462251  0.2893116548430014  0.3529241969061914   T   T   T
  0.0030683607648595  0.1655037930717266  0.6126618635745196   T   T   T
  0.5822151232518104  0.2583677807618716  0.6535649041422720   T   T   T
  0.6955023076734987  0.0717975529163592  0.3252633429999782   T   T   T
  0.1592772589326588  0.4227155489327675  0.8558376921726767   T   T   T
  0.5070418682753836  0.3361006875143506  0.0797816373936133   T   T   T
  0.8612535243807642  0.1481762950306326  0.0856832855910624   T   T   T
  0.4077482591546244  0.8145555703831178  0.3746288103733668   T   T   T
  0.1081091428840038  0.7005424309294856  0.6585647119411533   T   T   T
  0.9528669020034922  0.8021256674082008  0.3890247300953893   T   T   T
  0.5510897163344841  0.6896943913671121  0.6251610707737530   T   T   T
  0.3262171404423568  0.9288267056314088  0.6356208794670841   T   T   T
  0.1986937367160633  0.5786186067484935  0.3808911935146126   T   T   T
  0.8195515639378138  0.5892516896537429  0.1334349680670746   T   T   T
  0.7243553663719253  0.9134181717127295  0.8514357537560246   T   T   T
  0.0409260485772371  0.8695670315064087  0.1439706530194841   T   T   T
  0.5118574492717897  0.6503183244576290  0.8895671819972978   T   T   T
  0.2641010424590591  0.9305083568434389  0.9253343568586141   T   T   T
  0.3078721248227274  0.6190162415003828  0.1278917457647975   T   T   T
