Sr Co O 
 1.0000000000000000
     4.7501097872201479   -2.7631159677758270   -0.8144656340819705
    -4.7550713343333584   -2.7796066061970337    0.7268204968345364
     3.2454475885814782   -0.3463179956857761  -18.9381522681318692
 Sr  Co  O  
   8   8  20
Selective dynamics
Direct
  0.3084230365769965  0.6961656900314533  0.5681532186023108   T   T   T
  0.7007477603967304  0.2616921833340564  0.9363543706591694   T   T   T
  0.1015441963162464  0.8708302829100371  0.8155694487572229   T   T   T
  0.8349501347175573  0.1138279301301671  0.7044500123943338   T   T   T
  0.3200876404884532  0.7253541844602593  0.0764159214854216   T   T   T
  0.7453980379110146  0.2966338382224951  0.4152675072143349   T   T   T
  0.1611494141660570  0.8769512733699868  0.2942481308469448   T   T   T
  0.9151260391043016  0.1531213593939960  0.1931496846064792   T   T   T
  0.0146754794884516  0.0118765047068811  0.0103849087846752   T   T   T
  0.4564360577088803  0.4711875851754922  0.7463082844695776   T   T   T
  0.4095352050726912  0.5504790650231558  0.8803693742505040   T   T   T
  0.5477348663855672  0.3235036204657549  0.6051532449787229   T   T   T
  0.0187122305557550  0.0066232747500948  0.5014516630237021   T   T   T
  0.5343698698585269  0.5397268116504700  0.2528747908005919   T   T   T
  0.4392500290497522  0.6439624035890713  0.3887896781282526   T   T   T
  0.6275305630883884  0.4169447804882667  0.1177278760987782   T   T   T
  0.6227826846927615  0.3720861446879302  0.7968578254422451   T   T   T
  0.1103379222470567  0.3972822488775543  0.8300669898197865   T   T   T
  0.4570235876442661  0.6226887317345781  0.6710359272105790   T   T   T
  0.3013779921952706  0.1003853846048068  0.6889215188000790   T   T   T
  0.5928830327925718  0.8282062798741681  0.8101151913619273   T   T   T
  0.8487019730746933  0.2216102008343381  0.5778234333823198   T   T   T
  0.2174233708375943  0.2133386216137655  0.9305893785512610   T   T   T
  0.3713956586501981  0.2653169357580878  0.5267054196545218   T   T   T
  0.6551606380738104  0.7695803964787947  0.9405701903342689   T   T   T
  0.6409389987940146  0.4487657750581123  0.3237845962499648   T   T   T
  0.4315501124143430  0.6284464841852713  0.1804214173708357   T   T   T
  0.1839800404829103  0.4284076663293730  0.3203012572197754   T   T   T
  0.8866208853346372  0.6392459462048257  0.1857430071277956   T   T   T
  0.4208513846639675  0.1851782290137581  0.1950418559876060   T   T   T
  0.6403233064105621  0.9023322013287997  0.3087746711214171   T   T   T
  0.1568132595858784  0.7312720545121602  0.4577623884224584   T   T   T
  0.8124586839834108  0.1922732629533741  0.0754601619132231   T   T   T
  0.8705205439745305  0.6666550213734835  0.0402550039512245   T   T   T
  0.3405483158892211  0.1874943458785015  0.0597844373958003   T   T   T
  0.7106364450103551  0.8325534525234167  0.4523172420952475   T   T   T
