Sr Co O 
 1.0000000000000000
     4.7592124553488500   -2.7618488028762531   -0.7094223680419445
     4.6775230763461719    8.1640363015697694   -0.6299117901290180
    -1.4628405627480869    0.0739722827217340    9.3872937888680923
 Sr  Co  O  
   8   8  21
Selective dynamics
Direct
  0.4129182734616933  0.1229521867707670  0.8683255167563260   T   T   T
  0.0742091398104554  0.3620292319200564  0.1629274618862115   T   T   T
  0.1814295315708758  0.0725297303215323  0.3969354129819965   T   T   T
  0.2864049638174319  0.4395146406798393  0.6025855882911070   T   T   T
  0.9234401612387008  0.6456923384739607  0.8526924025882370   T   T   T
  0.5575108560160800  0.8652459239074175  0.1501474295502041   T   T   T
  0.6851521073094680  0.5674306597131517  0.3937850355616103   T   T   T
  0.7796415478481167  0.9269909812969860  0.6005244737978737   T   T   T
 -0.0076826295782325 -0.0055489604535623  0.0010739509626521   T   T   T
  0.7355014217985577  0.2512010863680233  0.5024060890413796   T   T   T
  0.6019511503006113  0.2048481052692639  0.2296470029100379   T   T   T
  0.8776058892477064  0.2963617694335135  0.7612916572078683   T   T   T
  0.4834550767811475  0.5124271543267409  0.0134016266667806   T   T   T
  0.2305604985240977  0.7533864285938580  0.4982450370421198   T   T   T
  0.0939600157754146  0.7056005611460678  0.2332632793382046   T   T   T
  0.3821623478207478  0.7867441815255857  0.7669854742874755   T   T   T
  0.8978164746433567  0.2973159648592115  0.3648797143257549   T   T   T
  0.5779589076138990  0.2059964386185341  0.6614071259491047   T   T   T
  0.4481821350763576  0.3128432433069204  0.3712203221090533   T   T   T
  0.0310202100237187  0.1806541154991481  0.6272566060542998   T   T   T
  0.8051042651832904  0.4344365579867248  0.6222556582338219   T   T   T
  0.6541486693806451  0.0771288392809354  0.3768159393312867   T   T   T
  0.2687465730404290  0.1097450683303455  0.1170473589769421   T   T   T
  0.5839948730170040  0.3515898559436624  0.0965798181791368   T   T   T
  1.1217759331555672  0.3761908163791413  0.9063747626174838   T   T   T
  0.7898839671277302  0.0853716913709689  0.1078485775037849   T   T   T
  0.3828178249696057  0.8127925642394570  0.3590181598340961   T   T   T
  0.0761839794154777  0.7005463450361462  0.6372255702160937   T   T   T
  0.9335184706623858  0.8126145629167698  0.3691950708076809   T   T   T
  0.5283472398315728  0.6963972361977122  0.6177277364381092   T   T   T
  0.3028658146825416  0.9263743062755319  0.6309135485193390   T   T   T
  0.1668441508801221  0.5698785043477766  0.3833727951513876   T   T   T
  0.7975333057824349  0.6292689013143500  0.1089351232929272   T   T   T
  0.7132745396659751  0.8949568405693896  0.8696279260414818   T   T   T
  0.4411294079029497  0.6023894430322849  0.8502700560563324   T   T   T
  0.2078101725468754  0.8874409401406981  0.9103857249222128   T   T   T
  0.2773223466177175  0.6301618909983393  0.1094046621655259   T   T   T
