Sr Co O 
 1.0000000000000000
     4.7629842567166056   -2.6709199727290640   -0.6488741853128421
     4.8627936934509313    8.1481287505769764   -0.7281230613974813
    -1.4184946695800675   -0.0865785809357379    9.4557338985305499
 Sr  Co  O  
   8   8  21
Selective dynamics
Direct
  0.4496802190793380  0.1576621432850378  0.8570694588339387   T   T   T
  0.0764751787769907  0.3627055729917084  0.1421678689839659   T   T   T
  0.1884087472515639  0.0469988491534925  0.3669799473786249   T   T   T
  0.3221749137310093  0.4564183936360947  0.6203580007725649   T   T   T
  0.9302791873391033  0.6501886732584879  0.8757408952697933   T   T   T
  0.5776447974687434  0.8383529254960658  0.1570043930207662   T   T   T
  0.6858712721683278  0.5568903659651061  0.3798446333326174   T   T   T
  0.7744251830981255  0.9188944389821175  0.5976023605383988   T   T   T
  0.0038262009707773  0.0018612655700828 -0.0029795355333379   T   T   T
  0.7324152260583370  0.2439223887681531  0.4845286259057371   T   T   T
  0.5919939782624426  0.1935164487509233  0.2230885992390671   T   T   T
  0.8916341452710550  0.3054139182749088  0.7741258466018514   T   T   T
  0.4977191956215161  0.5047385152938066  0.0005936587214541   T   T   T
  0.2456828609819176  0.7533753327058340  0.5099320245942184   T   T   T
  0.1120816399007743  0.7000209142483265  0.2409365908113524   T   T   T
  0.3997776527170511  0.8084609293540449  0.7731381189003446   T   T   T
  0.8961432513309204  0.2812022606888577  0.3409019937560857   T   T   T
  0.6403269276299863  0.1861129371244849  0.6426267184506597   T   T   T
  0.4247937598921905  0.3075146720616146  0.3804135230733007   T   T   T
  0.8530675999207911  0.4057155199416257  0.6087452819391248   T   T   T
  0.6777438402007823  0.0647340922156687  0.3652443323225577   T   T   T
  0.3219172220811408  0.0692645665486312  0.1129109708543283   T   T   T
  0.1840676959821831  0.4007801801396331  0.8550370707534249   T   T   T
  0.5668646283023969  0.3156013437923937  0.0949618073841907   T   T   T
  0.9714636378791721  0.1641193824965108  0.9085391314014405   T   T   T
  0.6604831302607338  0.4299866058573075  0.8581851880324508   T   T   T
  0.4007906013985230  0.8021694326373350  0.3679593700096913   T   T   T
  0.0964301389275949  0.7102088453675034  0.6573415165104579   T   T   T
  0.9500741381188973  0.8056480053006398  0.3814928971167872   T   T   T
  0.5518228181140762  0.6902839846555517  0.6183774303830593   T   T   T
  0.2953709784654796  0.9387024111471035  0.6349025773279190   T   T   T
  0.1814061153074861  0.5776727416179951  0.3871554901488538   T   T   T
  0.8234455787286062  0.5945941284488075  0.1386324549989761   T   T   T
  0.7110205485398032  0.9229158941948925  0.8673268414676331   T   T   T
  0.0258930626258862  0.8578476136124583  0.1107891392417947   T   T   T
  0.4306504984718496  0.6965896412224490  0.9094242678294079   T   T   T
  0.3221334270486210  0.5849147356694516  0.1356004674726767   T   T   T
