Sr Co O 
 1.0000000000000000
    -4.7531424781524843    2.7919516170408634    0.7276734080863523
    -4.6630679420889347   -8.2253988548174028    0.8345229174446963
     3.1038346240431722    2.6174571897247563    8.8804639819238940
 Sr  Co  O  
   8   8  21
Selective dynamics
Direct
 -0.0106903022776041  0.3198354344131443  0.9040106440619564   T   T   T
  1.0042580583216671  0.7090331413178400  0.1496422473808985   T   T   T
  0.0021106672880141  0.1066834625702041  0.3525321942680684   T   T   T
  1.0051844545418265  0.8461237764417079  0.5854945935916775   T   T   T
  0.4833016812279038  0.7929634008070063  0.8732129128413199   T   T   T
  0.5062576750305769  0.2144071660662722  0.1588744874227237   T   T   T
  0.5153192015787051  0.6036561235269353  0.3515715895911965   T   T   T
  0.5248994112587252  0.3808782050186394  0.6039630295779554   T   T   T
 -0.0228774844504521  0.0002517676796847  0.0089642749522765   T   T   T
  0.5171570021527448 -0.0020721314442241  0.5005100851989741   T   T   T
  0.5014336077716193  0.9013580369386951  0.2349790026474516   T   T   T
  0.5508574750511258  0.1119016349144291  0.7722148139978418   T   T   T
  0.4837847283665390  0.5024003266416710 -0.0069100216405883   T   T   T
  0.0145205887532565  0.5000104154019143  0.4982154685495045   T   T   T
  0.0159721773531759  0.4026366209159286  0.2363994854933545   T   T   T
  0.9812585559384214  0.6136711327074534  0.7798686628114545   T   T   T
  0.2666136647400041  0.8865178878872068  0.3782410680976904   T   T   T
  0.7615180438232736  0.1261268965800108  0.6194737234690934   T   T   T
  0.7282605727441809  0.8648202549881664  0.3782198883681506   T   T   T
  0.4382836259915977  0.9274458067511488  0.6543208911569893   T   T   T
  0.5118320384135415  0.1021366592344323  0.3671420359938541   T   T   T
  0.7665153232742072  0.9356834222773674  0.1335058248756986   T   T   T
  0.5017247690752251  0.7006553858059119  0.1371623034848708   T   T   T
  0.4212376051955941  0.2946782216320580  0.8319051194495368   T   T   T
  0.7002908179980242  0.0759456454368749  0.9230996840231956   T   T   T
  0.2712479240079614  0.9449497390604733  0.1025057880017528   T   T   T
  0.7883963770046636  0.3701470928704262  0.3739088009911546   T   T   T
  0.2309145679042735  0.5997687391980596  0.6416748286009450   T   T   T
  0.2424099727800932  0.3733466613693840  0.3839551238904734   T   T   T
  0.7792153343753044  0.6109954086988977  0.6167474221250551   T   T   T
  1.0212049674275172  0.6057751598234797  0.3613407312048769   T   T   T
  0.2700251439890498  0.4397227676800051  0.1248478698798172   T   T   T
  0.7150816567083959  0.5411008069729815  0.8560751974934078   T   T   T
  0.0397574968434345  0.1947686302592685  0.1219986064744941   T   T   T
  0.9992377338631736  0.8389731507895889  0.8479063660809194   T   T   T
  0.1888955250324545  0.5743647919409517  0.9081450536391927   T   T   T
  0.7647896752729341  0.4435382670879663  0.1196800955419214   T   T   T
