Sr Co O 
 1.0000000000000000
     4.7696028416665790   -2.8142747023992167   -0.7596167506522044
     4.6338163063578977    8.2318034470372172   -0.6195920955994324
    -1.5565853061303199    0.1285414299800371    9.3961567327683664
 Sr  Co  O  
   8   8  20
Selective dynamics
Direct
  0.4039443995693316  0.1263027118723589  0.8466633547260292   T   T   T
  0.0840505258364058  0.3780329975012164  0.1649387011074142   T   T   T
  0.2077824385127895  0.0795971701928083  0.4045296104888919   T   T   T
  0.2970279291593099  0.4436211607702956  0.6030807454956406   T   T   T
  0.9258463916806162  0.6397946200219771  0.8443134674436442   T   T   T
  0.5795773076706739  0.8436180574150081  0.1466307755986112   T   T   T
  0.6963714805379506  0.5704804157842592  0.4004743309617226   T   T   T
  0.7894657818509053  0.9288223873580790  0.5849742997690113   T   T   T
  0.0191679840789225 -0.0131107460548119 -0.0091259448938469   T   T   T
  0.7411531593015982  0.2530605643065059  0.4945951043294259   T   T   T
  0.5849962243569821  0.2117520639781398  0.2208119333388508   T   T   T
  0.8921479884275654  0.2954541680392692  0.7576616961828860   T   T   T
  0.4974879083993812  0.4992363080636982  0.0086159914515307   T   T   T
  0.2469523647468352  0.7582408214603600  0.5018369327555839   T   T   T
  0.1263717435177704  0.7035362601677460  0.2359973741792012   T   T   T
  0.3944055226277479  0.7884771492371422  0.7730547710605148   T   T   T
  0.8917635043871392  0.2999133743268075  0.3514579193972016   T   T   T
  0.5923491595022119  0.2005373842866952  0.6529958790119550   T   T   T
  0.4444671974116383  0.3200802269654954  0.3791646984733387   T   T   T
  0.0429812645395795  0.1833021166532655  0.6197967658682877   T   T   T
  0.8184694026617264  0.4345242032508569  0.6204901078377338   T   T   T
  0.6564165514225626  0.0780079356972234  0.3594309505179054   T   T   T
  0.2503814323680225  0.1192394952878843  0.1128993830536563   T   T   T
  0.1381482716603843  0.3798200663771656  0.9052648389975730   T   T   T
  0.6119594222058488  0.3185892804057440  0.0695019961848660   T   T   T
  0.4025074637258290  0.8190295730496733  0.3642572838638676   T   T   T
  0.0923550631679751  0.7026792583777388  0.6372066953116331   T   T   T
  0.9516612487587024  0.8151866632723290  0.3636092295490360   T   T   T
  0.5509726342674508  0.7072938546665837  0.6283328340199130   T   T   T
  0.3165784807281615  0.9301140400855091  0.6365824263392287   T   T   T
  0.1790041590134742  0.5757855904909233  0.3912800176695700   T   T   T
  0.8449309747129515  0.6165818796388652  0.1018300972828007   T   T   T
  0.7011191044224601  0.9149324023532305  0.9126324793611967   T   T   T
  0.4544080970193105  0.6052823653634123  0.8551690562882448   T   T   T
  0.2170594198266765  0.8657506852639562  0.9110190480546335   T   T   T
  0.3557172172066914  0.6064333074341111  0.1480250718976309   T   T   T
