Sr Co O 
 1.0000000000000000
     4.7054502224945045   -2.7872501383626673   -0.7977011984467447
     4.6882539190642554    8.3219491429030814   -0.8764338569318939
    -1.7637305779222936   -0.0722079380629570    9.5673340647755314
 Sr  Co  O  
   8   8  22
Selective dynamics
Direct
  0.4425186954311950  0.1586763959862142  0.8336465257855991   T   T   T
  0.0582549046464016  0.3648762032548871  0.1429331572673704   T   T   T
  0.2032357951048078  0.0715078031333162  0.3983816702114521   T   T   T
  0.3207528860203915  0.4418214358499229  0.6113023337467057   T   T   T
  0.9401726959108196  0.6275730763504045  0.8448090074936814   T   T   T
  0.5429121176806840  0.8370827761332288  0.1433530382193489   T   T   T
  0.7007660047432678  0.5651166747994602  0.4017345418760938   T   T   T
  0.8134159737878107  0.9413308245462697  0.5985871782776968   T   T   T
  0.0070573933440001  0.0049662371527620 -0.0321054875053022   T   T   T
  0.7440681507779312  0.2517524594220257  0.4843998552337243   T   T   T
  0.5619180870130973  0.2007479629819944  0.2216725739790520   T   T   T
  0.9077118016564432  0.2953822132086370  0.7546903065780534   T   T   T
  0.5028340671289272  0.4966565641954325 -0.0053840860574325   T   T   T
  0.2669462524774867  0.7558895248613698  0.5120210627155122   T   T   T
  0.0940298949607907  0.6941116820381635  0.2445620666140292   T   T   T
  0.4061849284959698  0.8018880687600390  0.7858693232935502   T   T   T
  0.8816430479364550  0.3040228274243061  0.3430689090980149   T   T   T
  0.6023402229860387  0.1914425352948917  0.6207495827640830   T   T   T
  0.4347656866401210  0.3099167860293807  0.3812175755479777   T   T   T
  0.0500345529039581  0.2002111126769967  0.6048569786405283   T   T   T
  0.8166014203520831  0.4259754967120405  0.6197279539062633   T   T   T
  0.6759463677151949  0.0726247926483609  0.3481682315804243   T   T   T
  0.2287891014949879  0.0888019979382104  0.1444672770284767   T   T   T
  0.2252537997410614  0.4045634506814365  0.8451943224308447   T   T   T
  0.5087675775777388  0.3124893865080198  0.0900970960635800   T   T   T
  0.9809896077195173  0.1375590318447861  0.8507075558851281   T   T   T
  0.7536415482680535  0.3875856760040677  0.8873943430068836   T   T   T
  0.4017888776902482  0.8144628921068270  0.3704309057777713   T   T   T
  0.1215536038709807  0.6932925203416247  0.6427676083276405   T   T   T
  0.9557827699264687  0.8042042576722542  0.3820630670947386   T   T   T
  0.5786831228505329  0.7221083020272067  0.6430659741790841   T   T   T
  0.3160967399444748  0.9305799275569425  0.6484894556457289   T   T   T
  0.2151093284767580  0.5726971295279845  0.3955302057892131   T   T   T
  0.7668709575536473  0.5891101493500086  0.1567219267324101   T   T   T
  0.6816850696331721  0.9372313522962390  0.9345200287407530   T   T   T
  0.5111816138930918  0.6582275760721669  0.8906238842297033   T   T   T
  0.1918515613865844  0.8632842205330236  0.9060686233797013   T   T   T
  0.2318437154630042  0.6182285465925461  0.1055953074692116   T   T   T
