Sr Co O 
 1.0000000000000000
     0.0091336484515814    5.4524797307869761    0.0275942910895443
     9.7386496689003650   -0.0064346375339003   -1.8317427766796763
    -2.9976278064484219   -2.7629014132860195   -8.8088126064523031
 Sr  Co  O  
   8   8  20
Selective dynamics
Direct
  0.5969876178123817  0.8185472839046113  0.1466785892845912   T   T   T
  0.9825941039721128  0.6556665333961229  0.9123755073906427   T   T   T
  0.8174665552599288  0.9160091585972674  0.6029039973585063   T   T   T
  0.7171683108301408  0.5642855426845561  0.3878852736252456   T   T   T
  0.1120627184334735  0.3572180604311000  0.1395590199049878   T   T   T
  0.4123741911656631  0.1280318120194845  0.8214248846609687   T   T   T
  0.3056405189976099  0.4567523440203388  0.6555444492860304   T   T   T
  0.1905708413820694  0.0109665543823459  0.3690477940091858   T   T   T
  0.0066711492162149 -0.0070652646697411  0.0052630717778595   T   T   T
  0.6236121602557121  0.2500027314247077  0.4805760492328797   T   T   T
  0.8836944229462210  0.3191945998051722  0.7822026182433879   T   T   T
  0.6167262022833024  0.1505772887508325  0.2029725752883946   T   T   T
  0.5251183275989816  0.5008055356136270  0.0087021281766787   T   T   T
  0.2613131251978251  0.7375752222492472  0.5177276128079584   T   T   T
  0.3844118488729580  0.8071977459671660  0.7975045587509040   T   T   T
  0.1493069987810377  0.6862894802155246  0.2541449771640779   T   T   T
  0.6745943929283054  0.0713227199600957  0.3848388991536509   T   T   T
 -0.2101814959267758  0.4096632076532770  0.6094354314515524   T   T   T
  0.5754983278705689  0.3241895304613622  0.2996587526742215   T   T   T
  0.3700303386255173  0.2163086980210991  0.5591313439829719   T   T   T
  0.9164588986961706  0.1406370873364387  0.7524869495979819   T   T   T
  0.1903568554878287  0.4191621109023135  0.8929761206829278   T   T   T
  0.3142842046147918  0.1131810771378225  0.0608362113767241   T   T   T
  0.9143096255353795  0.1186018562967076  0.1540516014847617   T   T   T
  0.6723671241134374  0.3613135262467916  0.9053640413531673   T   T   T
  0.3522971162269893  0.9099894896980437  0.6374143387571587   T   T   T
  0.2136230685558060  0.5583366910090488  0.4048199934208380   T   T   T
  0.9527065797189727  0.7888429026665483  0.3673329529731446   T   T   T
  0.4483413003206879  0.7817568730193190  0.3953170024844905   T   T   T
  0.1044356743452216  0.6895791028535012  0.6507453935699457   T   T   T
  0.5025808876851282  0.6546988442604410  0.8830198488585158   T   T   T
  0.1118552696698442  0.8326674188327599  0.1353160639607483   T   T   T
  0.6569132330493482  0.9246749560538248  0.9242398919268945   T   T   T
  0.8518169048383786  0.5707805832723364  0.1340497944143670   T   T   T
  0.3674246249789199  0.5877293219271607  0.1477859676629235   T   T   T
  0.1035684170379561  0.8875088597949019  0.8586664078315956   T   T   T
