Sr Co O 
 1.0000000000000000
     4.8144447452876307   -2.7929500721195075   -0.7209077219869185
    -4.7784976127010346   -2.7405746486556821    0.6571547055591244
     2.8676747899130035   -0.1949846208357934  -19.4042598033699463
 Sr  Co  O  
   8   8  20
Selective dynamics
Direct
  0.2789180365030111  0.7003520167549196  0.5690584250458646   T   T   T
  0.6876760473045027  0.2914116978427272  0.9405029777690901   T   T   T
  0.0713356200969329  0.9024384816008267  0.8217421835140011   T   T   T
  0.7922178540407533  0.1438346599986866  0.7133590982115883   T   T   T
  0.3211402819837777  0.7330120749694832  0.0709376977762611   T   T   T
  0.7316382173116991  0.2964970966186492  0.4173645557242418   T   T   T
  0.1831731469295327  0.8654014133717572  0.2800683917053639   T   T   T
  0.9420619051858866  0.1298041796076656  0.1716575865900133   T   T   T
  0.0007545180757556  0.0271665824788925  0.0056714701053404   T   T   T
  0.4150325154403140  0.5035357949311966  0.7546800725963007   T   T   T
  0.3929013584033583  0.5810990398892782  0.8833737930329618   T   T   T
  0.4820332323584204  0.3330200565577989  0.6209353773903267   T   T   T
  0.0483234276593608  0.0344309792720934  0.4757134375078053   T   T   T
  0.5424188599676271  0.5251419018700679  0.2473185442837644   T   T   T
  0.4135912515361900  0.6333646652892391  0.3909239725941716   T   T   T
  0.6286125933834467  0.4298831045906084  0.1151306992069490   T   T   T
  0.6038098016393136  0.4168285683488147  0.8020535370015162   T   T   T
  0.4230145576474862  0.6452703466289972  0.6744937496527564   T   T   T
  0.0837120589169862  0.4189305281921511  0.8360163127149790   T   T   T
  0.2479499930148219  0.1275539591988208  0.7028884355452354   T   T   T
  0.5491081086357158  0.8606742172554358  0.8164127020312240   T   T   T
  0.2154134090702484  0.2463475490179011  0.9325838841417089   T   T   T
  0.8025620485025899  0.3262451507745684  0.6068536077319163   T   T   T
  0.2877714481240586  0.1496295164309872  0.5438354665528826   T   T   T
  0.6565922515465626  0.7999489580624404  0.9408563867464790   T   T   T
  0.4532513842528567  0.6523885194876805  0.1730937325056159   T   T   T
  0.2094069788343163  0.3995806668582770  0.3135155534317189   T   T   T
  0.8918244161513971  0.6243530820057983  0.1828989596964940   T   T   T
  0.4206892915980895  0.1797365661604893  0.1872068578035201   T   T   T
  0.6982690019193118  0.8263510376993620  0.3172441628541668   T   T   T
  0.2511671068088519  0.8919697025131110  0.4029017041791099   T   T   T
  0.8056120742276116  0.2073789719997933  0.0689131645327279   T   T   T
  0.1402733625279491  0.3978523709617795  0.4573329360140246   T   T   T
  0.8678042476648986  0.6959778325392640  0.0430488388342547   T   T   T
  0.3322997600968725  0.2124697091244874  0.0584079230095888   T   T   T
  0.6766395671720462  0.7891189262504834  0.4596538324131450   T   T   T
