Sr Co O 
 1.0000000000000000
     4.7284208533895820   -2.7292609934652630   -0.7379699729214209
     4.7730667150023551    8.2849753881384398   -0.6449955268723143
    -1.5025592536426602    0.0893728883085537    9.6329133882385047
 Sr  Co  O  
   8   8  21
Selective dynamics
Direct
  0.4324791918173450  0.1420399761931792  0.8404175683530518   T   T   T
  0.0588492817654023  0.3431001751376801  0.0990048518359362   T   T   T
  0.2391769023668758  0.0663630237928384  0.4136095783325297   T   T   T
  0.3318944648896756  0.4567009056362450  0.6517479639329889   T   T   T
  0.9301157799561309  0.6525095824636923  0.8555083304187378   T   T   T
  0.5121425097743597  0.8359263825199954  0.1136798470009039   T   T   T
  0.6669287052661532  0.5693962443806970  0.3930416631055812   T   T   T
  0.8435980246331770  0.9530386792302862  0.6487684770642353   T   T   T
 -0.0210865108146370 -0.0020900223876185  0.0015418454596730   T   T   T
  0.7659360173541986  0.2544726567506517  0.4978296999122874   T   T   T
  0.5828491353020365  0.1640529069355949  0.2216588138707319   T   T   T
  0.8919775146235438  0.3020471293516939  0.7613270730551552   T   T   T
  0.5042342751464514  0.5043506393809759 -0.0030464614784200   T   T   T
  0.2588977390928053  0.7504100820537034  0.5047622709833153   T   T   T
  0.0927389200039999  0.6810207331168540  0.2231059333525310   T   T   T
  0.3927668693194174  0.8045397185013999  0.7670733028357108   T   T   T
  0.6023372673213132  0.1926423024842019  0.6327203016553820   T   T   T
  0.5088824235739612  0.3147863570848627  0.3467841092854485   T   T   T
  0.0725416875739168  0.2186490781275292  0.6243108886248142   T   T   T
  0.8010597617036259  0.4312879840434404  0.6167850735928877   T   T   T
  0.7612110421741052  0.0756143528952201  0.3844279857881091   T   T   T
  0.2602014282102091  0.0800352183586063  0.1539046895504293   T   T   T
  0.1820465525678015  0.4162336042850852  0.8753462664610920   T   T   T
  0.9882696448502554  0.1574485601430768  0.8729402327828333   T   T   T
  0.6792776111042296  0.3872589194358546  0.8824121713957389   T   T   T
  0.7500761847966749  0.1375009280901201  0.0901521392453068   T   T   T
  0.3640943094888044  0.8065267790916318  0.3530721859071074   T   T   T
  0.0984645015019384  0.7039383756956582  0.6406807820598219   T   T   T
  0.5633505982857211  0.7059389763019417  0.6313332897412159   T   T   T
  0.3033877757124058  0.9301477438361544  0.6195527117193019   T   T   T
  0.1537529911574141  0.5825844653711375  0.3868297796009079   T   T   T
  0.8048905351648492  0.5552509872524719  0.1483162707832408   T   T   T
  0.6910092989842624  0.9151556471376630  0.8614049025929161   T   T   T
 -0.0180298398466934  0.8143064931634466  0.1087106161075110   T   T   T
  0.4754712503471363  0.6620060535843171  0.8851292589862794   T   T   T
  0.2038889903643336  0.8973745053829593  0.8854946618537537   T   T   T
  0.3363169769332264  0.5734336307068209  0.1349609795723457   T   T   T
