Sr Co O 
 1.0000000000000000
     0.1737786090707157    5.5622262506646480    0.0856034907553909
    -9.2708516675866104   -0.2752247929487366    1.2298607082010478
    -1.3036587403050344    0.1420640644646581    9.6145966186448533
 Sr  Co  O  
   8   8  20
Selective dynamics
Direct
  0.0122170163645813  0.7184335746955265  0.8707181762133259   T   T   T
  0.0090769106083649  0.2832925045675381  0.1318070394668021   T   T   T
  0.0018755179461290  0.8678601716895054  0.3760614721364247   T   T   T
  0.0452961687742511  0.0931768284414529  0.6436932159603251   T   T   T
  0.5213675729821456  0.1884143412369028  0.8631461368220646   T   T   T
  0.4792365129902063  0.8051779874456715  0.1311742740691657   T   T   T
  0.4616434278306156  0.3838249011519146  0.3874640298202482   T   T   T
  0.4879238215314119  0.6451362042011675  0.5930148057657589   T   T   T
 -0.0035156104327657 -0.0047290651468120  0.0029352631123101   T   T   T
 -0.0242616445381149  0.4988207175555729  0.4944014798821045   T   T   T
 -0.0062137957480878  0.5899986909752651  0.2313648577715351   T   T   T
 -0.0299043356582914  0.3845574526251155  0.7778695460623961   T   T   T
  0.5102734327135410  0.5008122546521920 -0.0001402996537805   T   T   T
  0.5088278180218698 -0.0009183066702699  0.5008191041215548   T   T   T
  0.4793525763511170  0.1055365348591009  0.2216984270745720   T   T   T
  0.5208422245572207  0.8955133953106877  0.7631068827799007   T   T   T
 -0.0403586839401587  0.3880500620378344  0.3400611124657603   T   T   T
  0.2258596323285298  0.6297591293439784  0.3820979534712604   T   T   T
  0.7408832531484287  0.4271647664865807  0.6417002981120925   T   T   T
  0.1931311303539519  0.3982534620998994  0.6243379232756945   T   T   T
  0.7555507251069162  0.6165573734199913  0.3770849338924263   T   T   T
 -0.0700758868029246  0.7703612068795093  0.1172817599179626   T   T   T
  0.0891669496227965  0.2200849434973753  0.8874063721070939   T   T   T
  0.2362759030122218  0.5595737876088875  0.0907361069729348   T   T   T
  0.8036425838742125  0.4435350103738842  0.9202877744143196   T   T   T
  0.5435854403577848  0.9174483481227287  0.3490112844522652   T   T   T
  0.5225451021117518  0.1028340307736146  0.6407392836193821   T   T   T
  0.2625533341797310  0.8523512915900270  0.6423612852507626   T   T   T
  0.7453678009284557  0.8793677226568964  0.6054860666186425   T   T   T
  0.2919432291656422  0.1240718628887511  0.3881584837890182   T   T   T
  0.4868135025544103  0.3192641934404606  0.1426238008542512   T   T   T
  0.5270502915542733  0.6759148891333501  0.8569045841624080   T   T   T
  0.7075980557338306  0.0769007135915329  0.0943378643383660   T   T   T
  0.2945922085932191  0.9351058382043899  0.8980851812597509   T   T   T
  0.7951871489473861  0.9588258505396591  0.8608618485524098   T   T   T
  0.1886503641975752  0.0246674320122345  0.1486015567395202   T   T   T
