Sr Co O 
 1.0000000000000000
     0.0128939961848203    5.4306711119894153   -0.0682873332323893
    -9.7235939637070175   -0.0273751821114541    1.2585675021779941
    -1.3139579573326579   -0.1004689779055552    9.3467278603372890
 Sr  Co  O  
   8   8  20
Selective dynamics
Direct
  0.0231578756900162  0.7007770667859331  0.8860491136266487   T   T   T
  0.0120116502844914  0.2817417418670646  0.1536637914419786   T   T   T
  0.0285253532904489  0.8682396382157295  0.3645752263147540   T   T   T
  0.0075205783413754  0.1462636475379610  0.5934982607023143   T   T   T
  0.4942391552025763  0.2105442876627026  0.8583338401003143   T   T   T
  0.5070226654545321  0.7610806298220337  0.1479321557942773   T   T   T
  0.5085815367882133  0.3807140364716599  0.3670524372711448   T   T   T
  0.4836999431526930  0.6345369110862854  0.6168940967175861   T   T   T
 -0.0040892503830308 -0.0186780897368953 -0.0022259009698117   T   T   T
 -0.0424868977121349  0.5121330403210538  0.5092275494027904   T   T   T
  0.0071930628864783  0.5803950039835055  0.2412643410116992   T   T   T
 -0.0022965838175442  0.4183793946340590  0.7666906242803577   T   T   T
  0.4988554253560861  0.4920700584256317  0.0039519698030200   T   T   T
  0.5156542454683863  0.0053881394430609  0.4896326753911641   T   T   T
  0.4856771276865407  0.0932756828425450  0.2277372404563328   T   T   T
  0.4841925060351407  0.9099967513850205  0.7855002014273187   T   T   T
 -0.0111485332472151  0.3934606139929629  0.3827552524007254   T   T   T
 -0.0328315948346826  0.6100204989565456  0.6571086394682808   T   T   T
  0.2160693957247657  0.6139393620648775  0.4005820627535190   T   T   T
  0.7367868407382672  0.3914688374483753  0.6369935306423965   T   T   T
  0.7483383054081485  0.6215111469141277  0.3614020794526697   T   T   T
  0.0217659564621070  0.7789143376077873  0.1281863095690167   T   T   T
 -0.0124408074988617  0.2396298346988881  0.8683519530070209   T   T   T
  0.2776086224521740  0.5264723234013681  0.1448016006951985   T   T   T
  0.2977038568653012  0.4612842276378284  0.8466802887612097   T   T   T
  0.7939795912018869  0.5254040948712653  0.0924634501056878   T   T   T
  0.5093850823649863  0.9022112719329695  0.3412814742286797   T   T   T
  0.5662503031473823  0.0840621299850945  0.6508174287898010   T   T   T
  0.7576131278142390  0.1112661781439904  0.3652296308525043   T   T   T
  0.3207549938022694  0.8729089042395871  0.6107956101341082   T   T   T
  0.2727815585255953  0.1462999378231645  0.3792496388630881   T   T   T
  0.5374681940147467  0.2713301414631996  0.1021821011062582   T   T   T
  0.5242000405309342  0.7192027527761916  0.8704245554606941   T   T   T
  0.1587602643556497  0.9654890125692021  0.8322723937838441   T   T   T
  0.6647941089144678  0.9668892108496063  0.9469502916831917   T   T   T
  0.1927023564435547  0.0493772386583761  0.1250937852056667   T   T   T
