Sr Co O 
 1.0000000000000000
    -4.8145486679189666    2.6282404406476743    0.6962405272014950
    -5.0646348110540087   -8.3602568742787255    0.2390502713704188
     3.7816537422277889    3.2639394489961533    9.1121016059810280
 Sr  Co  O  
   8   8  20
Selective dynamics
Direct
 -0.0128442637105741  0.2883994445210401  0.9079378546704616   T   T   T
  1.0213035614453738  0.7251569097034619  0.1052710276983570   T   T   T
  0.0028061472358103  0.1402022705129712  0.3461285132535656   T   T   T
  0.9827631119371898  0.8820825565520838  0.6484363492983143   T   T   T
  0.5073551242622686  0.8081091931078016  0.8774402506431429   T   T   T
  0.4994631635069652  0.2019455384850487  0.1184406684607326   T   T   T
  0.4461528000620092  0.6378908916784909  0.3470893291612205   T   T   T
  0.5169467919754757  0.3699418310381375  0.6523522946213854   T   T   T
  0.0090536995578969  0.0060048205977463 -0.0021782300064881   T   T   T
  0.4985554996708323  0.0049652587684762  0.4980463917315770   T   T   T
  0.5034026597366568  0.9213412936622581  0.2261173971294500   T   T   T
  0.4965161992332949  0.0908790859087347  0.7709629006554959   T   T   T
  0.5051819286584408  0.5069756790400184 -0.0089700138902145   T   T   T
 -0.1015128270130632  0.5095173618628758  0.5063820708041705   T   T   T
 -0.0568123238865074  0.4396913633003939  0.2333450216000248   T   T   T
  0.9965961883486315  0.5812843337369397  0.7779027509434420   T   T   T
  0.2684815118752377  0.9018043635785371  0.3551418611487708   T   T   T
  0.7248259943187756  0.1122244352484649  0.6429904504136832   T   T   T
  0.4546022003769766 -0.1075924911147322  0.5981453729682519   T   T   T
  0.5494496278385280  0.1156689254638994  0.3974287194445414   T   T   T
  0.7525809005520853  0.9607757153849604  0.1300748093490406   T   T   T
  0.2540385577014453  0.0470614235770649  0.8630159968999631   T   T   T
  0.5635452559202667  0.7129874360776036  0.1485441663691639   T   T   T
  0.4217754687209420  0.2979374058331465  0.8485497474825969   T   T   T
  0.7529459521687089  0.0478895321000200  0.8916618349788590   T   T   T
  0.2529320582068290  0.9641847954137254  0.1090847030375410   T   T   T
  0.7085601523796394  0.3930469910460073  0.3438415533815366   T   T   T
  0.7028857246484044  0.6042712143262259  0.6606817893132532   T   T   T
  0.0806659442765700  0.3993906553525234  0.5860870425158000   T   T   T
  1.0063231867020330  0.6251786472310645  0.4193734175943608   T   T   T
  0.1666750286514315  0.4966770375789166  0.1435274518484601   T   T   T
  0.8043875466836238  0.5131345494026949  0.8789660502013420   T   T   T
  0.0397576785740918  0.2257253119067175  0.1475096487184235   T   T   T
  1.0282199380293318  0.7914692311186718  0.8428384854942270   T   T   T
  0.3008053193736429  0.5814158135710669  0.8822084200320938   T   T   T
  0.6737644998832040  0.4275110791789640  0.1029236433680231   T   T   T
