Sr Co O 
 1.0000000000000000
     0.0177326052114753    5.4287125811670176   -0.0621288441631967
     9.8698276954875652    0.0217194889566100   -1.2163711481090367
    -3.6763792897695544   -2.6212393062114812   -8.8259768676070873
 Sr  Co  O  
   8   8  21
Selective dynamics
Direct
  0.5734134967774304  0.8561799285749969  0.1281130847021689   T   T   T
  0.9517618105241630  0.6670388793804151  0.8610388541166625   T   T   T
  0.8173019730319283  0.9073732050181051  0.6212536357422559   T   T   T
  0.6780949267006634  0.5717778654034924  0.3616177962012292   T   T   T
  0.0957259896996289  0.3425859652924020  0.1500896606471435   T   T   T
  0.4591750214998192  0.1227550429708767  0.8759080383404343   T   T   T
  0.3323712586983814  0.4690067276352150  0.6196267341212304   T   T   T
  0.2196113831468663  0.0168570200020366  0.3820770306904033   T   T   T
  0.0173265704902257 -0.0081648246801528  0.0136562279198102   T   T   T
  0.7402687728711711  0.2462308456912994  0.5143964183149157   T   T   T
  0.8353216484120312  0.2933056356474246  0.7871341009100736   T   T   T
  0.6192337074334030  0.2007387833724675  0.2299192781359656   T   T   T
  0.4940628147702495  0.5163868160822832 -0.0105564401555467   T   T   T
  0.2488610549113774  0.7399915814071085  0.4930143645747457   T   T   T
  0.4018509941876803  0.7951281527064420  0.7626852595773473   T   T   T
  0.0951126160635894  0.6894779813170355  0.2222879505491973   T   T   T
  0.7665757329139925  0.0966627016257676  0.3668633422867177   T   T   T
 -0.0958315703304563  0.4021219615100145  0.6686113040890496   T   T   T
  0.5294643181565243  0.3351912623678814  0.3956160809479155   T   T   T
  0.6352204705629654  0.1442595759268879  0.6218953958884563   T   T   T
  1.0177522731908568  0.1943579650310780  0.8965588122538464   T   T   T
  0.5912543717358918  0.3374918098004149  0.1404067087048650   T   T   T
  0.2838228219532228  0.0991716723299332  0.1705866300360612   T   T   T
  0.7709201350951554  0.0861801433320543  0.0968576458656606   T   T   T
  0.5410977702627211  0.3695277509113615  0.8414455502744217   T   T   T
  0.3167014329126592  0.9172169831987033  0.6333462858504418   T   T   T
  0.1634652565110208  0.5638280245326199  0.3519944498395775   T   T   T
  0.5472285083920094  0.6871369886674781  0.6093080812360810   T   T   T
  0.9623513508228391  0.7994676830802804  0.3794939105983208   T   T   T
  0.4122501400328035  0.7829472787055343  0.3560053437301134   T   T   T
  0.0929586705157294  0.6921316238460770  0.6282806719747362   T   T   T
  0.4589368622603111  0.6507656938058676  0.8663509312120663   T   T   T
  0.0548177050972421  0.8312401717214606  0.1250968738709020   T   T   T
  0.7321266664194789  0.8944374443153978  0.8545449617974865   T   T   T
  0.7623251832125237  0.6110398660717439  0.1339225654146323   T   T   T
  0.2156900313939238  0.5556801338125181  0.0669603065411255   T   T   T
  0.2430281034326315  0.9061237681286654  0.9048924184144711   T   T   T
