Sr Co O 
 1.0000000000000000
     4.6674927503859678   -2.7644419076598243   -0.8014137011864619
    -4.6674927503859678   -2.7644419076598243    0.8014137011864618
     3.2328286741767371   -0.0000000000000001  -18.9597497172059448
 Sr  Co  O  
   8   8  21
Selective dynamics
Direct
  0.2699540619842656  0.7300459380157376  0.5724098141847197   T   T   T
  0.7282205119776467  0.2717794880223546  0.9364135530969910   T   T   T
  0.1120263698600894  0.8879736301399140  0.8014926029761631   T   T   T
  0.8667164400943621  0.1332835599056391  0.6767538437365521   T   T   T
  0.3046584008387601  0.6953415991612418  0.0722899581051693   T   T   T
  0.7022158314408978  0.2977841685591029  0.4408785521881728   T   T   T
  0.1157532109993282  0.8842467890006752  0.3082946341071079   T   T   T
  0.8885049464424364  0.1114950535575635  0.1880755466500953   T   T   T
  0.0107209520918136 -0.0107209520918135  0.0036983308922962   T   T   T
  0.4702471576812376  0.5297528423187648  0.7544197255839664   T   T   T
  0.4252476972063229  0.5747523027936799  0.8847500475503185   T   T   T
  0.5703684353384040  0.4296315646615984  0.6191701639421168   T   T   T
 -0.0076968096035742  0.0076968096035755  0.4971682416250884   T   T   T
  0.4803785073939225  0.5196214926060790  0.2496121035378746   T   T   T
  0.3936985223963542  0.6063014776036481  0.3863896132343845   T   T   T
  0.6097784293610496  0.3902215706389522  0.1163891515589773   T   T   T
  0.3642129246611635  0.6357870753388395  0.6893310195638772   T   T   T
  0.1403586012934382  0.4104397062555810  0.8261006677140544   T   T   T
  0.8268300006652013  0.6271727852537826  0.6922351794233960   T   T   T
  0.3728272147462203  0.1731699993347998  0.6922351794233960   T   T   T
  0.5895602937444194  0.8596413987065639  0.8261006677140542   T   T   T
  0.7774003793354758  0.2225996206645251  0.5568818458470884   T   T   T
  0.2441685794881530  0.2622913653809673  0.9293066179782129   T   T   T
  0.7641303907936277  0.7302752318226732  0.5666322381974918   T   T   T
  0.2697247681773291  0.2358696092063724  0.5666322381974916   T   T   T
  0.7377086346190356  0.7558314205118514  0.9293066179782129   T   T   T
  0.4008856912774852  0.5991143087225171  0.1732178085350431   T   T   T
  0.1345035513945770  0.4063334563677393  0.3146207615419497   T   T   T
  0.8466742910346311  0.6094075861596305  0.1927629479771689   T   T   T
  0.3905924138403720  0.1533257089653700  0.1927629479771689   T   T   T
  0.5936665436322632  0.8654964486054271  0.3146207615419496   T   T   T
  0.2041891780167287  0.7958108219832730  0.4536115292896655   T   T   T
  0.8164587045624067  0.1835412954375931  0.0732915877465900   T   T   T
  0.2361627407628159  0.2703647947684447  0.4233140138482806   T   T   T
  0.8512450076804614  0.6567276871632196  0.0477577897069938   T   T   T
  0.3432723128367829  0.1487549923195393  0.0477577897069937   T   T   T
  0.7296352052315560  0.7638372592371863  0.4233140138482807   T   T   T
