Sr Co O 
 1.0000000000000000
     0.0332737524494400    5.4794948947122917   -0.0551092011038140
    -9.6666420855576582   -0.0553334536457000    1.5801949639965795
    -1.6351449481444016   -0.0670292988304882    9.4117430882909048
 Sr  Co  O  
   8   8  20
Selective dynamics
Direct
  0.0080584441136834  0.7338128190480712  0.8425180305331251   T   T   T
  0.0166868606152822  0.2788540885307207  0.1560309409098322   T   T   T
  0.0146932277200072  0.8975008910228369  0.3836691938222389   T   T   T
  0.0184554903088074  0.1164667311538894  0.6041897311403448   T   T   T
  0.5069177436013775  0.1906990282607210  0.8530381303370377   T   T   T
  0.4591327425886752  0.7896431796217620  0.1476937351446109   T   T   T
  0.5217072056770735  0.3532665784745703  0.4026230111546444   T   T   T
  0.5018663473206622  0.6618007015180898  0.5937057916785622   T   T   T
  0.0016589411291071  0.0184623927818589 -0.0178442200830867   T   T   T
 -0.0361347749174653  0.5231265293895043  0.5043177133555585   T   T   T
 -0.0457664529437222  0.5675489521023230  0.2371731180792706   T   T   T
  0.0237081968288005  0.4013516289768286  0.7748856980791602   T   T   T
  0.4578456976098585  0.5216558802126802 -0.0003482497658571   T   T   T
  0.5202601571798816  0.0062962023446747  0.4952600979534022   T   T   T
  0.5105071896526769  0.0870329767074962  0.2258497779735218   T   T   T
  0.5124832622253721  0.9038809931166226  0.7695950477737740   T   T   T
  0.0302757711947496  0.3788422620940628  0.4150536071677229   T   T   T
  0.0593546546373822  0.5939568735581273  0.6584942629860430   T   T   T
  0.1566290226376986  0.6569242890299274  0.3555968729286687   T   T   T
  0.7426630332257604  0.4115843508943227  0.6520794844149899   T   T   T
  0.7039257132001281  0.6024294923243443  0.3523982282335558   T   T   T
  0.0282596644912508  0.2078114232436006  0.8215357199311659   T   T   T
  0.1942890757799215  0.5772570793095322  0.1028537205085977   T   T   T
  0.2758321576598659  0.3999264627742103  0.9141148342362639   T   T   T
  0.7143230486268398  0.4739899591378693  0.1372918910901695   T   T   T
  0.5315548282572855  0.8862164849287446  0.3721458140797858   T   T   T
  0.5155606216813989  0.1114138708740001  0.6345710108952712   T   T   T
  0.7477942198178631  0.1309391524899455  0.3627218584253127   T   T   T
  0.2820731983690204  0.8883445990345966  0.6188738527634077   T   T   T
  0.7522336225786380  0.8893174096300063  0.6273186852045081   T   T   T
  0.2888613170398436  0.1294448714418983  0.3592024435117087   T   T   T
  0.5272327834925139  0.6929926220650534  0.8511360832369204   T   T   T
  0.7432389966542895  0.1047011879982452  0.0864653791320793   T   T   T
  0.2542842033179543  0.9287183177612106  0.8947064597070548   T   T   T
  0.7547136786326056  0.9177959566031881  0.9220520093082182   T   T   T
  0.2318204793223539  0.0339939469708504  0.1257301537484243   T   T   T
