Sr Co O 
 1.0000000000000000
     4.8172515349697482   -2.7054447152553807   -0.6087992686678789
     4.9020843357517556    8.2450373384581361   -0.6114378407382335
    -1.2704630405219515   -0.0074575689277389    9.6668419465632738
 Sr  Co  O  
   8   8  21
Selective dynamics
Direct
  0.4164781406122551  0.1293928702668838  0.8438391032918435   T   T   T
  0.0426002499037780  0.3309268885529623  0.0922635361555776   T   T   T
  0.1565533123949377  0.0572432923072646  0.3772449021304877   T   T   T
  0.3262212734520069  0.4522649649685974  0.6482247632633213   T   T   T
  0.9444358637628958  0.6495878835669966  0.8659303764539426   T   T   T
  0.5737612949329431  0.8796052773677341  0.1261070239878340   T   T   T
  0.7545770748381442  0.5811068396323376  0.4239111746856007   T   T   T
  0.8454001636516995  0.9351079158115064  0.6552589685680461   T   T   T
  0.0164611617958173 -0.0070664505041957  0.0045293659954307   T   T   T
  0.7300131694630859  0.2502818993608448  0.4883862578398448   T   T   T
  0.6043186802521985  0.2112974041952171  0.2007540436711890   T   T   T
  0.8801431792441587  0.2796218747843472  0.7420527661281934   T   T   T
  0.4991577424234724  0.5304687054433344  0.0422681157406553   T   T   T
  0.2754032982213782  0.7535737741121227  0.5169723392348918   T   T   T
  0.0933328033403762  0.6981459836462151  0.2362068933593570   T   T   T
  0.4065044644950482  0.7857575556633861  0.7761427651986023   T   T   T
  0.8304715767686516  0.3210778571617898  0.3388538690726667   T   T   T
  0.5670242833435104  0.2136220607560968  0.6339508251768042   T   T   T
  0.0243744568003981  0.1626692543216551  0.5902928156860401   T   T   T
  0.8090371395130860  0.4198406650940190  0.6111318594476366   T   T   T
  0.5923243817201925  0.1036096554415180  0.3542698729849871   T   T   T
  0.3321341637335773  0.1219896101705392  0.0930450452933753   T   T   T
  0.1357030422531786  0.3770077388649205  0.8466306353628075   T   T   T
  0.5824011472439932  0.3461213458113948  0.0632780581316347   T   T   T
  0.8952424441399442  0.1442105164783943  0.8642333399801083   T   T   T
  0.8635263747276576  0.0899446548368548  0.1382751072855262   T   T   T
  0.1118516533676896  0.6900239282298066  0.6584259377818618   T   T   T
  0.9940304883479639  0.8168730259702731  0.3976225753453559   T   T   T
  0.5738172256471676  0.6974446187757717  0.6331576032283360   T   T   T
  0.3396636299336920  0.9222826537066174  0.6407686787263313   T   T   T
  0.2557747133063620  0.5930003057887662  0.3844960758182645   T   T   T
  0.7448272547387271  0.6351521991779762  0.1746089459712632   T   T   T
  0.6939046396443068  0.8812113988626011  0.8883274411138060   T   T   T
  0.1330573694406734  0.8544689859645636  0.1581677560678992   T   T   T
  0.4833071737162618  0.6182825154574348  0.8806022061608234   T   T   T
  0.1962399925268014  0.8884940512082360  0.8877339544759401   T   T   T
  0.1979248109683105  0.5733562185172322  0.0953351611687134   T   T   T
