Sr Co O 
 1.0000000000000000
    -4.7283820037463613    2.7294101964097321    0.7579129275857702
    -4.8478907290631783   -8.3133999743685330    0.8167762943307425
     3.1649460931797133    2.7307337922512454    8.7203648424929323
 Sr  Co  O  
   8   8  20
Selective dynamics
Direct
 -0.0139178085281421  0.2962843178724383  0.8363202225075467   T   T   T
  0.9921828391567403  0.7272456055307677  0.1361776441165099   T   T   T
 -0.0189143695698920  0.1171458316104543  0.3938847222675010   T   T   T
  0.9916804491981083  0.8813149028889422  0.6045270668463616   T   T   T
  0.4816034415785482  0.7654110686052809  0.8571514195315837   T   T   T
  0.5383303924741158  0.2120471161945220  0.1323545995134343   T   T   T
  0.4914335954261392  0.6649699897121787  0.3771853090881446   T   T   T
  0.4837663640780408  0.3514941023001846  0.6166638969813142   T   T   T
 -0.0212017644577732 -0.0282584801105685 -0.0141179576566957   T   T   T
  0.4862889567757892  0.0059916598610887  0.4991280743408310   T   T   T
  0.4975693314808978  0.9226200019363097  0.2265353173211728   T   T   T
  0.5137091240303745  0.0925236911760030  0.7684354056405220   T   T   T
  0.4959649080479737  0.5006986989867590 -0.0020992525941059   T   T   T
  0.0151154163518156  0.4914437717126131  0.4864898236030999   T   T   T
  0.0009288364140429  0.4443244817009099  0.2210816097346019   T   T   T
  1.0032505116908759  0.5792758557468466  0.7543692179981388   T   T   T
  0.2564267893293798  0.8838881279014728  0.3580472375038699   T   T   T
  0.7290982431586692  0.1280316630306538  0.6171036090891628   T   T   T
  0.7162858576586352  0.8908694286037201  0.3701467797053243   T   T   T
  0.2533297436437781  0.1122788610751460  0.6369571395350574   T   T   T
  0.5123201266011492  0.8925326128555363  0.6376169919015595   T   T   T
  0.4627378342925336  0.1214838183485243  0.3699906553615962   T   T   T
  0.7786014362790644  0.9804566655873405  0.1423188621773078   T   T   T
  0.5283922436621491  0.7175060040726217  0.1128124463673849   T   T   T
  0.4401947188796509  0.2754357281709220  0.8915373108277682   T   T   T
  0.7963314783318316  0.0791416076334708  0.8945475262115283   T   T   T
  0.2798509315077153  0.9729572170339742  0.0722322155905932   T   T   T
  0.2459709484362911  0.6036371150318092  0.6140451103655707   T   T   T
  1.0146603944213195  0.3798665310866196  0.6061574335482400   T   T   T
  0.9667816912674267  0.6277956010570227  0.3926545735031906   T   T   T
  0.3130056698849522  0.4533716115002503  0.1774326195006667   T   T   T
  0.7149673043599503  0.5307411087446698  0.8200044550055450   T   T   T
 -0.1617446587165161  0.3519284566037928  0.3397521964044309   T   T   T
  0.9653016422154822  0.7864012990515917  0.8308551193272951   T   T   T
  0.2207749515778775  0.5469155965925070  0.9032785978782562   T   T   T
  0.7939225368701441  0.4492282919649030  0.0764218191163653   T   T   T
