Sr Co O 
 1.0000000000000000
     4.7723460083353251   -2.6879985910652437   -0.6587480179656605
    -4.8506952924140068   -2.7955438842114906    0.7951107744662644
     3.0990838275936472    0.4718625758511455  -19.3056910209860639
 Sr  Co  O  
   8   8  20
Selective dynamics
Direct
  0.2236901208726553  0.7199029328859168  0.5843363703880334   T   T   T
  0.6830479942307670  0.2854165773071790  0.9420169809611174   T   T   T
  0.0700383045490205  0.8723715666180782  0.8314129076424009   T   T   T
  0.7730003117064511  0.1103924300632136  0.7166264511448965   T   T   T
  0.2866032751945570  0.7115805867045736  0.0565847772107015   T   T   T
  0.8285495519353496  0.3387272944471479  0.4180712265195103   T   T   T
  0.2151930878578855  0.8898963814816270  0.2823872785688312   T   T   T
  0.9009219856731197  0.1236474137067348  0.1687668242254659   T   T   T
 -0.0153576780598859 -0.0014313078809742 -0.0006234885052874   T   T   T
  0.4088795227334924  0.4594188887142999  0.7484833202635768   T   T   T
  0.3747222818467309  0.5735365541747037  0.8817792228766569   T   T   T
  0.5451511104778802  0.4208376578299384  0.6152091541544409   T   T   T
 -0.1242682337565178 -0.0146574253298221  0.5189794520878150   T   T   T
  0.5642310117400844  0.5312486565064877  0.2486292572409508   T   T   T
  0.5885849882640461  0.6725406089129572  0.3875895815084165   T   T   T
  0.5962814342224677  0.4224563254235016  0.1162424660599091   T   T   T
  0.5824260473432983  0.4004997998258791  0.8095559554611954   T   T   T
  0.2918807948112337  0.5463626540416442  0.6790325079583353   T   T   T
  0.0823860826767120  0.3297512988919767  0.8171977666141362   T   T   T
  0.3916580111148412  0.1542482248972948  0.6754555017407055   T   T   T
  0.5231389544279202  0.8122200395545541  0.8099736009223483   T   T   T
  0.1536720204637219  0.7473228900707689  0.9376383556524860   T   T   T
  0.7335746517939973  0.2449435165045722  0.5437700699927865   T   T   T
  0.2321129491504545  0.2956466289646123  0.9384302905347599   T   T   T
  0.7904745981299736  0.7813205977974439  0.5897228269432699   T   T   T
  0.6887276998598085  0.8282955657024189  0.9353005581446668   T   T   T
  0.6590004433418784  0.3999506510456459  0.3118944991978108   T   T   T
  0.3930441130656535  0.6018380072485345  0.1900523717493428   T   T   T
  0.8927680117019989  0.6592108527036626  0.1799905865031826   T   T   T
  0.4363456774670850  0.1785960935782462  0.1866465468387594   T   T   T
  0.6442352175668192  0.8789379096090898  0.3187038108281781   T   T   T
  0.3002236680410671  0.5556257836545390  0.4552129170720697   T   T   T
  0.8132096229039063  0.2464851082392046  0.0604670648655931   T   T   T
  0.7392760788182926  0.7019237925454401  0.0603835074333168   T   T   T
  0.2798886923335149  0.1707835215829280  0.0632035770945263   T   T   T
  0.9586873988205068  0.8561520495868314  0.4208760045813422   T   T   T
