Sr Co O 
 1.0000000000000000
    -4.8575845159878437    2.7261226702920278    0.8660188064290313
    -4.8775124405052752   -8.2416095263252416    0.5621294074800909
     3.2117027713102924    3.0183624911748246    8.7854721124451043
 Sr  Co  O  
   8   8  20
Selective dynamics
Direct
  0.0110962178213298  0.3278621956280990  0.8279230687294441   T   T   T
  0.9942291588647755  0.7227793756084727  0.1587806725432620   T   T   T
 -0.0157530052670545  0.1120954730177857  0.3790358496478410   T   T   T
  0.9900360669444486  0.8803494140032301  0.6230382022282041   T   T   T
  0.5317386000918680  0.7759802291348382  0.8979025291234002   T   T   T
  0.5060376941821889  0.1810173696915311  0.1530076555333213   T   T   T
  0.4979153271658034  0.6499795898364128  0.3929923470898482   T   T   T
  0.5256679550267884  0.3950480253479088  0.5914697817298586   T   T   T
 -0.0068793507602250 -0.0160695922152936  0.0161071882604678   T   T   T
  0.4881811889655753  0.0291245759308677  0.5351846874680972   T   T   T
  0.4878892007984116  0.9127868981492324  0.2626218557998009   T   T   T
  0.5640404307990003  0.1391401765699734  0.8199297746276377   T   T   T
  0.4592520143296278  0.5013767492833106  0.0099768897365057   T   T   T
 -0.0358872747585769  0.5116945862966807  0.4825032345624757   T   T   T
 -0.0174388173715815  0.3950113083092603  0.2093963396861773   T   T   T
  1.0464459431066593  0.6108716502147067  0.7529186215069881   T   T   T
  0.2603879377780372  0.8964847044462033  0.4110274741460361   T   T   T
  0.7334972123171379  0.1441842872806102  0.6494392264140141   T   T   T
  0.7146016343906217  0.8929990294988926  0.4041422192521688   T   T   T
  0.2881919620035659  0.0977096720137654  0.7053505505657427   T   T   T
  0.4611585626601636  0.1311735084734447  0.3879753511517048   T   T   T
  0.7449562584990841  0.9450714512869764  0.1462544688973310   T   T   T
  0.5129620038812536  0.6883525729386170  0.1528352112396129   T   T   T
  0.7078491064357392  0.0137095397956006  0.8961925861542190   T   T   T
  0.2521200554977358  0.9330786076586024  0.1305874434080396   T   T   T
  0.7419731852385261  0.3852826976017036  0.3447075037064821   T   T   T
  0.2256091993669780  0.6145102916731604  0.5861508336329928   T   T   T
  0.7419126387551914  0.6544226678269690  0.6160891183811860   T   T   T
 -0.0085120424452789  0.3934639846354006  0.5966753243949885   T   T   T
  0.9908998858463998  0.5949410750211606  0.3399711061465944   T   T   T
  0.1742117987004763  0.4373611835161791  0.0822457900191146   T   T   T
  0.8583698753853578  0.5926068997844406  0.8926618073545840   T   T   T
  0.0403635389215206  0.1918810740243352  0.1392196390039920   T   T   T
  1.1019395259692693  0.8260202095271845  0.8491162542317692   T   T   T
  0.3428889769760861  0.5153070853207209  0.8372879751287019   T   T   T
  0.6340471543049306  0.3223912373648720 -0.0247188169828689   T   T   T
