Sr Co O 
 1.0000000000000000
     0.1063660040252469    5.5262445079567772    0.0729899741793181
    -9.5143773554839566   -0.1645335099024750    1.3745841393760594
    -1.4348861483709889    0.1083210468029771    9.5287460244640716
 Sr  Co  O  
   8   8  20
Selective dynamics
Direct
  0.0026164771499429  0.7198846696719151  0.8740186886618972   T   T   T
  0.0018329816173962  0.2754442137065474  0.1459852838384370   T   T   T
 -0.0445737531170281  0.8928086613416940  0.3597745984724477   T   T   T
 -0.0140676726773209  0.1502231794301204  0.6049253235554211   T   T   T
  0.5028446419481175  0.1969365581880728  0.8543486048733727   T   T   T
  0.4808086977577031  0.8059294862175524  0.1386559624357227   T   T   T
  0.5001254995812381  0.3649378899420027  0.3890127541222546   T   T   T
  0.5251418751089373  0.6234049364551673  0.6198329083913932   T   T   T
  0.0052721897809041  0.0031560976734955 -0.0089247377237305   T   T   T
 -0.0015196927243059  0.5023586981375835  0.5109908699513427   T   T   T
 -0.0292526694009856  0.5864521332284766  0.2300716790247465   T   T   T
  0.0436398506518109  0.4045483805293195  0.7728280831766442   T   T   T
  0.4797073437841149  0.5282010627988777  0.0036704289848933   T   T   T
  0.4800068226994542  0.0000541529414233  0.4928411256596705   T   T   T
  0.4707945346456531  0.0837217083633641  0.2333357105649405   T   T   T
  0.5313599971155765  0.9078069951183327  0.7686416336637344   T   T   T
 -0.0163517696617978  0.4012142097553352  0.3697075579275227   T   T   T
  0.0359733671069626  0.6052948418942856  0.6606682658439925   T   T   T
  0.7672611757712201  0.3761566183755500  0.6634128921463494   T   T   T
  0.2613269933448281  0.3979090013952837  0.5952594061571779   T   T   T
  0.7808911368336597  0.6242250536570536  0.3899445793799140   T   T   T
 -0.0406718353585562  0.7819973471812537  0.1298226514411747   T   T   T
  0.0254984033256566  0.2142162379141222  0.8706081957095044   T   T   T
  0.2928892810287010  0.5507848656342258  0.1625545892514523   T   T   T
  0.2955812766431617  0.4263977241994077  0.9076162329862730   T   T   T
  0.7791367600661373  0.5048851927813315  0.0843055951051661   T   T   T
  0.4384287149963255  0.8681736318544020  0.3820457690079068   T   T   T
  0.4645716759690785  0.0966600056641183  0.6352924167315216   T   T   T
  0.7129710503663572  0.1392894941250377  0.3439356878875562   T   T   T
  0.7145702833955900  0.8864686003382324  0.6049400171232919   T   T   T
  0.2465018488784242  0.1221304787840804  0.3772775483720690   T   T   T
  0.5318972349004985  0.7021211502572446  0.8495307276300292   T   T   T
  0.6954802536983620  0.0659658420888046  0.0981360315097700   T   T   T
  0.3037255817493901  0.9279115949573810  0.9002257500986538   T   T   T
  0.8242029360970053  0.9672572488484107  0.8445199438736647   T   T   T
  0.2043786077554859  0.0460722108578302  0.1321870143363613   T   T   T
