Sr Co O 
 1.0000000000000000
    -4.8247357004512681    2.8200429163332008    0.6674330539358232
    -4.6821959318087023   -8.2224051635540043    0.6484949911345884
     3.3643348976858976    2.7180842128642628    8.7149246918891343
 Sr  Co  O  
   8   8  20
Selective dynamics
Direct
 -0.0315970956828502  0.2950573662250411  0.8986084447124509   T   T   T
  0.9877163635469809  0.6873166482516367  0.1646473244698343   T   T   T
 -0.0073921544670569  0.1063475587472838  0.3711865795493023   T   T   T
  0.9974424495504374  0.8763851638436564  0.5892690157453890   T   T   T
  0.4943967061486392  0.7852515468149350  0.8367411045509786   T   T   T
  0.4923748031188857  0.2327844304226109  0.1667641255319864   T   T   T
  0.5044736213139829  0.6185972043268618  0.3952183689796425   T   T   T
  0.5184937166569566  0.3502709765954760  0.6006573324145398   T   T   T
 -0.0853289247228184  0.0049294521823707 -0.0013070846506466   T   T   T
  0.5034444991773177 -0.0130944478824606  0.4838249576713480   T   T   T
  0.5031792951671360  0.8792419387501005  0.2103864266721847   T   T   T
  0.4791518361767434  0.1037276117701188  0.7522097752719554   T   T   T
  0.4956321987450463  0.4943413084387774  0.0146465029235142   T   T   T
  0.0101212560169062  0.4947247778134761  0.5198922711509250   T   T   T
  0.0114601293805601  0.4013830563681026  0.2519011141727561   T   T   T
  0.9782081972510323  0.6372937821607708  0.8018786780315611   T   T   T
  0.2687176256443150  0.8654579205557001  0.3435256944314589   T   T   T
  0.7446684072958220  0.1199172160084136  0.6179201203842466   T   T   T
  0.7266909836499696  0.8488991312833115  0.3725878251316836   T   T   T
  0.2694834244244407  0.1154742166273594  0.5970481108013088   T   T   T
  0.4748701341917617  0.8899602035446476  0.6275749029868376   T   T   T
  0.5172899189279927  0.0831128444563835  0.3408349573616772   T   T   T
  0.7639295360504686  0.9032313315772003  0.1046319997435406   T   T   T
  0.4015761122405537  0.6981300168806190  0.0586873050549082   T   T   T
  0.4236872464342251  0.3119993535557611  0.8540047216951293   T   T   T
  0.6422041106417725  0.0735208703314516  0.9112427105949028   T   T   T
  0.7890095449506617  0.3617297507723228  0.3824450276289612   T   T   T
  0.2398742540073500  0.3718341515149452  0.3959483723033127   T   T   T
  0.7613060542124734  0.6063246279431701  0.6299977889931735   T   T   T
  0.2344255696957347  0.5639209734054977  0.6803606227958930   T   T   T
  1.0215454479365711  0.6069114381973000  0.3896458332498798   T   T   T
  0.2451136333946232  0.4533640530743644  0.1377637199607091   T   T   T
  0.8149522197624475  0.5400807021796450  0.8960316950792107   T   T   T
  0.0409916877437062  0.1851060357398072  0.1241615513770867   T   T   T
  1.0521715942192948  0.8495618702872610  0.8502386230773272   T   T   T
  0.7477155229952960  0.4429049116338207  0.1348234462017440   T   T   T
