Sr Co O 
 1.0000000000000000
    -4.7384442779591884    2.7788116283929880    0.7342090101666980
    -4.7753725769060358   -8.3791999076668340    0.7485890957931780
     3.1844934403923939    2.7894182955194871    8.7165397263763786
 Sr  Co  O  
   8   8  20
Selective dynamics
Direct
 -0.0117580732484135  0.3108390975839459  0.8683676154898170   T   T   T
  1.0107295826047287  0.6867639390723038  0.1405424393686910   T   T   T
 -0.0099206316800391  0.1577461317968535  0.4166636601453025   T   T   T
  0.9909007591873469  0.8454572909639720  0.6161911821391873   T   T   T
  0.5062534289111300  0.7627361386398726  0.8362840377632440   T   T   T
  0.4838941571219815  0.2453085223848713  0.1523369679890418   T   T   T
  0.4896136512668146  0.6075197104782423  0.3905091254046300   T   T   T
  0.4997194987851862  0.3797222274992726  0.6085714890911879   T   T   T
  0.0210822610439277 -0.0060738819902565  0.0338018116264248   T   T   T
  0.4804671904975730 -0.0060945299167973  0.4865830704766306   T   T   T
  0.5225356302444909  0.9383899629708276  0.2070621543598994   T   T   T
  0.4751434326817384  0.0903673555345238  0.7457002885134724   T   T   T
  0.4924824726575678  0.4903959594804796 -0.0046268763488194   T   T   T
 -0.0038024904591822  0.4991806891633397  0.5041886411064976   T   T   T
 -0.0154803125325860  0.4106130688825317  0.2341488292048289   T   T   T
  0.9989030974289801  0.5988594605454896  0.7752299062571456   T   T   T
  0.3967342003097272  0.8275648848820042  0.3191447967237177   T   T   T
  0.6970957832667755  0.1345891491099052  0.6122104508751918   T   T   T
  0.1901867670773544  0.0865933078903458  0.6302269785481627   T   T   T
  0.5233633641476998  0.8901334246830397  0.6313295890320293   T   T   T
  0.4502349725037988  0.1126086862989387  0.3714312873290682   T   T   T
  0.8592448183461471  0.9411015417612549  0.1870287627392713   T   T   T
  0.4816346852399523  0.2636432278910326  0.8899700997483706   T   T   T
  0.3734452323649416  0.9748391161251098  0.0497741559083474   T   T   T
  0.7638455161049865  0.3741165806393993  0.3730305652660312   T   T   T
  0.2259357358738376  0.6242990965095219  0.6341330247493628   T   T   T
  0.2208978439818889  0.3797896757764180  0.3718331775553842   T   T   T
  0.7621913537041121  0.6112741256826805  0.6305075158213272   T   T   T
  0.0152136522504937  0.3967389932904317  0.6435824924946217   T   T   T
  0.9854414391444516  0.6147548711655968  0.3780534595884236   T   T   T
  0.2365612468951187  0.4600424666613271  0.1237442291023320   T   T   T
  0.7494139476391373  0.5570749740181582  0.8970239005304466   T   T   T
 -0.0269771667391179  0.1942773667928532  0.0867131254322960   T   T   T
  0.9718724563986166  0.8264895048974760  0.8700167052702633   T   T   T
  0.2574730800647932  0.5773599063835425  0.9080491912676406   T   T   T
  0.7215770430265906  0.4761277282651695  0.1359419808476421   T   T   T
