Sr Co O 
 1.0000000000000000
    -0.0039254639273313    5.5043336390306861    0.0567293816767174
     9.6611913166479049   -0.0051915433947109   -1.3486489660792234
    -3.4232314560526245   -2.8388512154011569   -8.6992450809537072
 Sr  Co  O  
   8   8  20
Selective dynamics
Direct
  0.5424619170823743  0.8821469209053491  0.1259067239382022   T   T   T
  0.9114051716721961  0.6710959554996166  0.8289861420127863   T   T   T
  0.7897103308053839  0.9504043502922577  0.6025468152815259   T   T   T
  0.6954862729266517  0.5442579183768960  0.4101249941050891   T   T   T
  0.0597498238318179  0.3291293916411943  0.1653208216200294   T   T   T
  0.4304664512837894  0.1324001891374801  0.8557715130189293   T   T   T
  0.3215950026495374  0.4156521668752866  0.6195301480639029   T   T   T
  0.1952295238495263  0.0777922044340201  0.3911653819549936   T   T   T
 -0.0203176927621774  0.0053286127517043 -0.0062551820536344   T   T   T
  0.7618441089615077  0.2500758913898666  0.5149448096730181   T   T   T
  0.8842233810584338  0.3067160082788962  0.7826778576067757   T   T   T
  0.6001280886140111  0.2039075019570743  0.2436193262443924   T   T   T
  0.5157827117963746  0.4785965673611493  0.0196112090856832   T   T   T
  0.2307704129066021  0.7392978657014132  0.4667471295366968   T   T   T
  0.3597551755447051  0.8066051338329878  0.7349454278267340   T   T   T
  0.1552423087951973  0.6913674173560828  0.1839538303420327   T   T   T
  0.8531551077615561  0.4300687647446291  0.6539445572056117   T   T   T
  0.6938485677659115  0.0723819295442587  0.3739397545167393   T   T   T
  0.0596715004870586  0.2018429660209145  0.6504716784181478   T   T   T
  0.4597952699953591  0.3079390950738541  0.3919095844151454   T   T   T
  0.9216924540524351  0.3041428232409695  0.3843238394320746   T   T   T
  0.5729309803092403  0.1945378159346492  0.6295399387238865   T   T   T
  0.9743892184014004  0.1896215006651520  0.9037641769312073   T   T   T
  0.5216505139071868  0.3620196537964509  0.1408352649851715   T   T   T
  0.2719091383765044  0.0922513118682994  0.1491086274296685   T   T   T
  0.7488849715112228  0.1053604284453443  0.1021556987425189   T   T   T
  0.6963412723386464  0.4392443372060933  0.8901799665936272   T   T   T
  0.2856669585085332  0.9244784739319124  0.5761780252079687   T   T   T
  0.4996494258606524  0.6628002926767531  0.6230328989211066   T   T   T
  0.4465067802517045  0.7728796753042645  0.3535062508789054   T   T   T
  0.0352525056564409  0.7121098620655480  0.5973625150320233   T   T   T
 -0.0292790418433245  0.8214721097421287  0.1025389686584617   T   T   T
  0.6921822584609338  0.9071250562902557  0.8336045082134171   T   T   T
  1.0629995805422894  0.5867884687675040  0.3047728933347341   T   T   T
  0.3080277104902625  0.6240824852375744  0.0302993659323063   T   T   T
  0.2168418319801343  0.8987286400610159  0.8742343968323373   T   T   T
