Sr Co O 
 1.0000000000000000
     4.7198208462581119   -2.8590007385332212   -0.8108460186718747
     4.5606566607509569    8.2997261366362949   -0.6671461948960026
    -1.6668829766925604    0.1088085826913727    9.5574001835962790
 Sr  Co  O  
   8   8  21
Selective dynamics
Direct
  0.4273279241194041  0.1214534065815617  0.8449826855239554   T   T   T
  0.0982588252093824  0.3671659472369523  0.1657439329665785   T   T   T
  0.2235675487392908  0.0746223804243994  0.4051004077562645   T   T   T
  0.3222096004107846  0.4359553707588368  0.5999937497367133   T   T   T
  0.9602648392032520  0.6516969654650241  0.8479997408669352   T   T   T
  0.5634252010257952  0.8724114659230827  0.1581138685252337   T   T   T
  0.7186347645523280  0.5741441892456367  0.3972565076828692   T   T   T
  0.8221900205231030  0.9376094095996663  0.5960158831028696   T   T   T
  0.0021492535521037  0.0219883768836488  0.0271942526003885   T   T   T
  0.7860849518695685  0.2570486208234179  0.5124818934014049   T   T   T
  0.6253836890112383  0.2108234525355605  0.2453172584378199   T   T   T
  0.9361419151854176  0.2769791087323568  0.7782109313177344   T   T   T
  0.4758434105357671  0.5228637308279523  0.0006238666103213   T   T   T
  0.2568210982745762  0.7544953521483675  0.4904232514437276   T   T   T
  0.0898288291115799  0.7075832069195194  0.2207689216880710   T   T   T
  0.4112725676433469  0.7756153855998327  0.7552298644612085   T   T   T
  0.9297918882392687  0.3165207785302583  0.3713964675110467   T   T   T
  0.6207446451646405  0.2045686512622440  0.6453110036137959   T   T   T
  0.4880320414035535  0.3209159837762815  0.3850318466967194   T   T   T
  0.0874802410299770  0.1921892267798627  0.6214004039189510   T   T   T
  0.8760023824260641  0.4262004241010346  0.6595149742154194   T   T   T
  0.7101651855120380  0.0772558083330826  0.3913710254809150   T   T   T
  0.3066915307888290  0.1175474557992511  0.1501755258474413   T   T   T
  0.2457263870435648  0.3596211429239258  0.9211316267384257   T   T   T
  0.9374799605000316  0.1000899160403162  0.8574608450914671   T   T   T
  0.7639451539137249  0.1413903823530489  0.0991957938515312   T   T   T
  0.3880698424586675  0.8216579470616924  0.3518895613841448   T   T   T
  0.0882327196081306  0.6834270426913914  0.6107598087167192   T   T   T
  0.9491711307899611  0.8029235006351164  0.3640849475908896   T   T   T
  0.5699914541583848  0.7035050633775621  0.6150255848413152   T   T   T
  0.3373207118121232  0.9253605374099245  0.6275865523673360   T   T   T
  0.2036018383797885  0.5825237999721418  0.3622991588337286   T   T   T
  0.7898002922802213  0.5625303993594898  0.1294778978191642   T   T   T
  0.3098451857889653  0.8718515005696232  0.8944468227389154   T   T   T
 -0.0344843378081035  0.8486097066666300  0.0818464685930799   T   T   T
  0.5001845817185852  0.6058479155447936  0.8419755238320116   T   T   T
  0.2703027872407368  0.6195063355796084  0.0971611340022361   T   T   T
