Sr Co O 
 1.0000000000000000
    -4.8448459584867365    2.7378874451735227    0.8205284600204229
    -4.7482178738585983   -8.1202810359889792    0.8160566215074563
     3.0995537866600018    2.7156377579464688    8.8598103247587172
 Sr  Co  O  
   8   8  20
Selective dynamics
Direct
  0.0493168698152715  0.3067341900172889  0.8754309482022924   T   T   T
  0.9662498688699761  0.6993725413414073  0.1453944395104858   T   T   T
 -0.0003519652777762  0.1246593161774563  0.3891840749791021   T   T   T
  0.9964382938616375  0.8460273234546141  0.5928465627799360   T   T   T
  0.5052085700269878  0.7636113064033391  0.8366322332977230   T   T   T
  0.4876300364917118  0.2417181379690920  0.1409192106657063   T   T   T
  0.4860315859961883  0.6019711929745813  0.3827954174450400   T   T   T
  0.5235053943732518  0.3783355639357628  0.6368331513516059   T   T   T
 -0.0219402788424208  0.0012364205275927  0.0062413361983269   T   T   T
  0.4895666388914400  0.0128862384540586  0.5137557282246822   T   T   T
  0.4268824570946965  0.8799913706220098  0.2287983323618665   T   T   T
  0.6006728471340028  0.0893941182132452  0.7859905332764074   T   T   T
  0.5124074807786647  0.5040225590077303 -0.0023412608727866   T   T   T
  0.0007117459558052  0.4893139962964880  0.4924089728996671   T   T   T
 -0.0120995154357259  0.4101630963741913  0.2311845360678621   T   T   T
  1.0221675525604732  0.6016333723971528  0.7729078106316983   T   T   T
  0.2563074757523243  0.8828367283334628  0.3957963788995906   T   T   T
  0.7485506143493337  0.1327579907596099  0.6275162499360388   T   T   T
  0.6951297646915225  0.9226516449102299  0.3505022816949758   T   T   T
  0.2662385358558036  0.1567083454794289  0.5980303767509439   T   T   T
  0.5428838487423867  0.9003197011520535  0.6556299314192328   T   T   T
  0.5398736063390573  0.7258038571295679  0.0811347693012772   T   T   T
  0.5143053399276157  0.2786547724097193  0.8916972478026864   T   T   T
  0.6584222737727985  0.0212593796503202  0.9453466032299479   T   T   T
  0.1690209472991963  0.9550711582230568  0.1499674651596596   T   T   T
  0.7686972458182809  0.3589198002210187  0.3727957897521594   T   T   T
  0.2357849074128698  0.6010035036453154  0.6153258690230962   T   T   T
  0.2253963219899101  0.3650276591194053  0.3624943812823217   T   T   T
  0.7817658960410615  0.6014791687309152  0.6299360907982458   T   T   T
  0.9693826611685089  0.6144334925912268  0.3661838116367895   T   T   T
  0.2272661354588289  0.4731837185225372  0.1245585356333568   T   T   T
  0.8009289697279240  0.5269766638404584  0.8680050622488337   T   T   T
  0.0200404218223323  0.2043369556698907  0.0861468287025113   T   T   T
  1.0462565496786926  0.8302545733885823  0.8547685022654266   T   T   T
  0.2851340230973844  0.5264358145319089  0.8535790212457561   T   T   T
  0.7162167948207442  0.4708139201364541  0.1416025275091013   T   T   T
