Sr Co O 
 1.0000000000000000
     4.8255063993537162   -2.8416998717680761   -0.8232402928252696
     4.6382584731487837    8.2359496388501814   -0.6859728234451548
    -1.6781302259183162    0.1059956285160269    9.6807738102245668
 Sr  Co  O  
   8   8  20
Selective dynamics
Direct
  0.4522552158783021  0.1404370174904379  0.8253789849688221   T   T   T
  0.0905140223882763  0.3809918476509823  0.1684400764815442   T   T   T
  0.1963936550960401  0.0787992127512738  0.4036066768743925   T   T   T
  0.3074319864232163  0.4387495318461428  0.5970890308806314   T   T   T
  0.9437502745758130  0.6209478614080206  0.8376585185478153   T   T   T
  0.5455853123405292  0.8408224415467792  0.1732893983025229   T   T   T
  0.7125157813416889  0.5710115594602940  0.4123965084085715   T   T   T
  0.7880148760210047  0.9370530700038270  0.5878329743370119   T   T   T
  0.1134924766114061  0.0242728435276155 -0.0252826283114633   T   T   T
  0.7435266059769327  0.2562458760012169  0.4903921370408032   T   T   T
  0.5665561078336467  0.2122259795144556  0.2269230588134795   T   T   T
  0.8846184247200264  0.2742734223049211  0.7542638245402865   T   T   T
  0.5663004423249208  0.4871327190733516 -0.0009606269184430   T   T   T
  0.2479387121095338  0.7562877775097158  0.5107697699031588   T   T   T
  0.0829495515583967  0.7081882714224813  0.2463392038481198   T   T   T
  0.3965580993329483  0.7791964413629472  0.7735062957920952   T   T   T
  0.8868145137119614  0.3036905434149097  0.3444001456704084   T   T   T
  0.5593970997131789  0.1993578358197980  0.6087277737815894   T   T   T
  0.4575419667231797  0.3354846098256826  0.3824751870444542   T   T   T
  0.0387218573522269  0.1874273610786630  0.6183712316096679   T   T   T
  0.8528650973313185  0.4237182349090928  0.6342847362559265   T   T   T
  0.6656843497062354  0.0813885073850704  0.3578203717181186   T   T   T
  0.2456066960927532  0.1101024514438680  0.1602434657928527   T   T   T
  0.4840022563075833  0.3233429604182676  0.0710233373211089   T   T   T
  0.8905421349501620  0.0988102841996233  0.8349449259206457   T   T   T
  0.7994410704730648  0.3849832251817594  0.9029000598061759   T   T   T
  0.4020507627613892  0.8092865052981731  0.3757558172658477   T   T   T
  0.0634084742587515  0.7081499408115708  0.6326978930503562   T   T   T
  0.9597833018413231  0.8255047555068463  0.3816874131777586   T   T   T
  0.5422782619569981  0.6901877775960030  0.6358423848997705   T   T   T
  0.3498268678838997  0.9251715856704072  0.6466811660406681   T   T   T
  0.1724879211304243  0.5769747174009693  0.3937635887282698   T   T   T
  0.7626374306794028  0.6110691987158464  0.1616118455818923   T   T   T
  0.4298738294730791  0.6016397108494027  0.8603225312055796   T   T   T
  0.3508700256668706  0.9042769552956100  0.9276682040834237   T   T   T
  0.2007646995353194  0.6437970742692034  0.1031343608701652   T   T   T
