Sr Co O 
 1.0000000000000000
     0.0301759799163201    5.5215923761416219    0.0007032978925506
    -9.6316486300254773   -0.0438700211574023    1.7544227377065165
    -1.8152333052067238    0.0066555747524277    9.4561051454772187
 Sr  Co  O  
   8   8  20
Selective dynamics
Direct
 -0.0089234913334693  0.7429389917195286  0.8790908955812535   T   T   T
  0.0325915843638541  0.3003864399912696  0.1502632120001560   T   T   T
  0.0250735101752796  0.8941219821212535  0.3544826300934848   T   T   T
  0.0109371246836689  0.1026650919652514  0.5925171305709533   T   T   T
  0.5043942361003325  0.2149036350363956  0.8178986885065673   T   T   T
  0.4944955151231789  0.8102425511057590  0.1036318328100442   T   T   T
  0.5155689888557622  0.3532058480482221  0.3718698339858000   T   T   T
  0.4897915740195131  0.6547522241225018  0.6248850627700343   T   T   T
  0.0071161710784688  0.0167850266534209 -0.0205166807926093   T   T   T
 -0.0522275370930689  0.4496003298814769  0.5426999555495441   T   T   T
  0.0265065283883427  0.5857028356408870  0.2491403093340736   T   T   T
  0.0216026630190041  0.4232139102217862  0.8137842739268127   T   T   T
  0.5247463464778308  0.5277079744269406 -0.0041588603726953   T   T   T
  0.5213725603838679 -0.0006036876932715  0.4716604390201504   T   T   T
  0.5309865414599489  0.0918515022712885  0.1970570806406555   T   T   T
  0.4972673713169700  0.9231556996348239  0.7449078901493322   T   T   T
  0.0176428656897344  0.3778966287962612  0.3866679880325671   T   T   T
  0.1014412796158993  0.6245503925353066  0.4390492810999217   T   T   T
  0.0629247614355548  0.2932237708363345  0.7182648534414754   T   T   T
  0.6257108261094582  0.4387156999150036  0.5745927033835345   T   T   T
  0.0075507582484633  0.7893846839352180  0.1392484704248274   T   T   T
  0.2932450901913688  0.5275263413773590  0.1451604821810016   T   T   T
  0.7805877883537805  0.5227479537905534  0.8528033166107535   T   T   T
  0.3159358717289618  0.4284211529399619  0.9019980045098751   T   T   T
  0.7647837526225936  0.5301477080896912  0.1346479299351219   T   T   T
  0.5329752963653226  0.8768711915319228  0.3524843726949007   T   T   T
  0.5188523097856712  0.1159630216215595  0.5954218841240748   T   T   T
  0.7544749044972680  0.1230830324842798  0.3375058031936471   T   T   T
  0.2753461554362490  0.8875030353410149  0.6030579606787243   T   T   T
  0.7383946823693187  0.8782371508150122  0.6193798608419808   T   T   T
  0.2996932359277887  0.1246997014456632  0.3332852139490248   T   T   T
  0.4571346870569841  0.7286909492865047  0.8765651418502489   T   T   T
  0.7839731797186863  0.1226901619265306  0.0572109404251429   T   T   T
  0.2323202998539180  0.9803468464131915  0.8461672333821282   T   T   T
  0.7402879163558022  0.9671071551082534  0.8731311526003077   T   T   T
  0.2814239620967394  0.0745627745420281  0.0748436535276156   T   T   T
