Sr Co O 
 1.0000000000000000
     0.0377168110316088    5.5548770213642156   -0.0475621207866147
    -9.5913010320097651   -0.0544195975445323    1.3989482121509225
    -1.4791654883730303   -0.0818228627515235    9.6288491969809975
 Sr  Co  O  
   8   8  20
Selective dynamics
Direct
  0.0396743585369576  0.7594082863149223  0.8301692386259687   T   T   T
 -0.0307420041559657  0.2810599859631812  0.1469383714617012   T   T   T
 -0.0058683860657476  0.8469886457049470  0.4068300644426270   T   T   T
  0.0143186748755608  0.1440014907722948  0.6040065833170813   T   T   T
  0.5224112381245420  0.2174812701158878  0.8323045077824673   T   T   T
  0.4474281583997322  0.7686439533121734  0.1589718588193751   T   T   T
  0.4801475815800629  0.3862154229723081  0.4199473157565115   T   T   T
  0.5040494506701908  0.6514274306569133  0.6067837511225613   T   T   T
  0.0403800694627076  0.0260991994974633 -0.0343477898618198   T   T   T
 -0.0166691085510114  0.5037682924238103  0.5142902688334051   T   T   T
 -0.0641515577361944  0.5758072557924943  0.2504335258540401   T   T   T
  0.0268729498558061  0.4222057913400373  0.7782139141499724   T   T   T
  0.6351464494920706  0.5564058390864836 -0.0224567182570919   T   T   T
  0.4990699149881578  0.0173883866656104  0.4835135598322970   T   T   T
  0.4086249104520875  0.0878902703136783  0.2094860450037693   T   T   T
  0.5302057509707379  0.9271729827488706  0.7493308131726828   T   T   T
 -0.0499427517363142  0.3853444457966261  0.3829022426130214   T   T   T
  0.0342742971239132  0.6144597851490592  0.6450392458770847   T   T   T
  0.2059996074936770  0.6155951423969972  0.3716345020857100   T   T   T
  0.7508734278439813  0.3993769632173590  0.6456802630336164   T   T   T
  0.2209331916023143  0.3807106889784220  0.6344944791944700   T   T   T
  0.7439342198619381  0.6285172514904147  0.4029738648096728   T   T   T
  0.0051970285063849  0.7253862389171577  0.1029681243837015   T   T   T
  0.0623077323951067  0.2360431698726575  0.9017980666399270   T   T   T
  0.9228610365020696  0.4891841870008090  0.9276215649126358   T   T   T
  0.6365924614513866  0.5201919098052498  0.1715039929076984   T   T   T
  0.5230539843569760  0.1243690705748980  0.6171826789470951   T   T   T
  0.5298574150342233 -0.0827696318218414  0.3414325862603569   T   T   T
  0.2716668133835742  0.8965799706504685  0.6222850227548672   T   T   T
  0.7403762381305085  0.9018606976415556  0.5999254946306130   T   T   T
  0.2841977906707097  0.1531350196918606  0.3658399813502596   T   T   T
  0.5661955817224944  0.2242551204268385  0.0839412532188199   T   T   T
  0.5164709929654201  0.7161094601618415  0.8470836232375313   T   T   T
  0.3263757687270402  0.9592095508877743  0.8991132705541706   T   T   T
  0.8104951584708169  0.9894740315157996  0.8458625654641814   T   T   T
  0.1083814747132039  0.0140023871390885  0.1583016107183098   T   T   T
