Sr Co O 
 1.0000000000000000
    -4.6574016032958108    2.8556213813089966    0.7549235159023904
    -4.4397911273057957   -8.2448900011345732    0.7433654638140942
     2.9950792992296558    2.7106396300563471    8.8042776785529888
 Sr  Co  O  
   8   8  20
Selective dynamics
Direct
 -0.0205194574543235  0.2968840518736584  0.8500167416169151   T   T   T
  1.0205194574543239  0.7031159481263402  0.1499832583830840   T   T   T
  0.0234963249813386  0.1212822561787351  0.3962299417688453   T   T   T
  0.9765036750186612  0.8787177438212630  0.6037700582311525   T   T   T
  0.4945732955544698  0.7797768648185055  0.8620346138157000   T   T   T
  0.5054267044455307  0.2202231351814928  0.1379653861842975   T   T   T
  0.5051901276005965  0.6464327130083960  0.3857246387125772   T   T   T
  0.4948098723994049  0.3535672869916022  0.6142753612874209   T   T   T
 -0.0000000000000001  0.0000000000000001  0.0000000000000000   T   T   T
  0.4999999999999992 -0.0000000000000003  0.4999999999999984   T   T   T
  0.5015630191911975  0.9122941228522542  0.2295777943516279   T   T   T
  0.4984369808088032  0.0877058771477436  0.7704222056483692   T   T   T
  0.4999999999999994  0.4999999999999993  0.0000000000000001   T   T   T
  0.0000000000000006  0.4999999999999989  0.4999999999999991   T   T   T
  0.0302790797497189  0.4005989924285361  0.2222719605124128   T   T   T
  0.9697209202502812  0.5994010075714620  0.7777280394875845   T   T   T
  0.2586551725606627  0.8733020488331681  0.3752209673870153   T   T   T
  0.7413448274393364  0.1266979511668311  0.6247790326129831   T   T   T
  0.7344821629067521  0.8858917714896497  0.3692958072588764   T   T   T
  0.2655178370932469  0.1141082285103481  0.6307041927411218   T   T   T
  0.4865713453096892  0.8847826220565013  0.6357839089408972   T   T   T
  0.5134286546903111  0.1152173779434977  0.3642160910591017   T   T   T
  0.5768855877903597  0.7296271811138342  0.1026834709262077   T   T   T
  0.4231144122096410  0.2703728188861639  0.8973165290737903   T   T   T
  0.7252968613217947  0.0484553492274769  0.9091418190542706   T   T   T
  0.2747031386782045  0.9515446507725206  0.0908581809457280   T   T   T
  0.2392979915150125  0.3904083145263766  0.3852324591407333   T   T   T
  0.7607020084849883  0.6095916854736216  0.6147675408592647   T   T   T
  0.0315574465453560  0.4015924582526870  0.6313974070950809   T   T   T
  0.9684425534546437  0.5984075417473109  0.3686025929049163   T   T   T
  0.3132247227252989  0.4882182747375918  0.1535605576060611   T   T   T
  0.6867752772747007  0.5117817252624070  0.8464394423939373   T   T   T
 -0.0087339711217205  0.1864484251034270  0.1540676718501039   T   T   T
  1.0087339711217203  0.8135515748965713  0.8459323281498938   T   T   T
  0.1981674291252101  0.5688284423129922  0.8983784349300621   T   T   T
  0.8018325708747892  0.4311715576870057  0.1016215650699369   T   T   T
