Sr Co O 
 1.0000000000000000
     4.7954815851481989   -2.8211698434488732   -0.6339131033329797
     4.6747045962830382    8.2442413457246921   -0.6938980150904475
    -1.4133739993138139   -0.0679347706845832    9.5392700689157888
 Sr  Co  O  
   8   8  20
Selective dynamics
Direct
  0.4340579261965448  0.1075348051632609  0.8417551050592393   T   T   T
  0.0506841664627272  0.3863411246584923  0.1359077078594183   T   T   T
  0.1864925439423046  0.0486438602272672  0.3919911875756212   T   T   T
  0.2910646617297746  0.4397572039132691  0.5979397322048047   T   T   T
  0.9374654845871491  0.6510182123329360  0.8662193220160406   T   T   T
  0.5449839431437157  0.8450514896998946  0.1044962575363290   T   T   T
  0.6537642106470205  0.5902738243728769  0.3478896893050067   T   T   T
  0.8307869952109427  0.8947003497072467  0.6220315109876972   T   T   T
  0.0132921406708045 -0.0110628119386705 -0.0095157378103854   T   T   T
  0.7355717414039518  0.2374892359458435  0.5039487421055893   T   T   T
  0.5640781110910755  0.2273516434653066  0.2210999659690868   T   T   T
  0.9205125796316420  0.2618983927188228  0.7842088445619357   T   T   T
  0.4698826079632203  0.5129196000372882 -0.0071867340972708   T   T   T
  0.2447956949102201  0.7428719632612900  0.4873526559712889   T   T   T
  0.0899441111290619  0.7227288147881582  0.2262414347292306   T   T   T
  0.3940186754581966  0.7732859663770146  0.7490506206815510   T   T   T
  1.0176534189206985  0.1690670843442233  0.6123887030431365   T   T   T
  0.5977624574863019  0.2474000852022767  0.6650958946241105   T   T   T
  0.4425161450387327  0.2882901443117927  0.3933093087479670   T   T   T
  0.8797984875211823  0.2425883737418255  0.3466354397511733   T   T   T
  0.3661404545388822  0.0883485958494227  0.1047386003670539   T   T   T
  0.1516920497260433  0.4021148595165664  0.8672510226516377   T   T   T
  0.5517908784998000  0.3793856301863775  0.1183343009713253   T   T   T
  0.8924362679029644  0.1666221552022644  0.9389272199047750   T   T   T
  0.3932634174569073  0.8122016417030110  0.3499643796135252   T   T   T
  0.0934817345914153  0.6770776123802329  0.6258967339787042   T   T   T
  0.9457306145545517  0.8098448273120689  0.3814874431541016   T   T   T
  0.5405500369880352  0.6748442782717856  0.5963546473563991   T   T   T
  0.3289894354286929  0.9138962052370276  0.6209790041628631   T   T   T
  0.1636890325871856  0.5740284885836793  0.3502859947855876   T   T   T
  0.7928446832673767  0.6150200657275042  0.1070654216788561   T   T   T
  0.6913346713336814  0.8838470157662273  0.8623760811679828   T   T   T
  0.0076126153767303  0.8950799984439194  0.1429423402225692   T   T   T
  0.4755016341665209  0.6060081926538385  0.8417876096079401   T   T   T
  0.1985313896310619  0.8761684684262382  0.8697320364752994   T   T   T
  0.2652846411882315  0.6333622534562922  0.0944172796971284   T   T   T
