Sr Co O 
 1.0000000000000000
    -4.7973352648320864    2.7949998903672784    0.8292242938582990
    -4.6277922141395766   -8.1502719553045857    0.6205089620161459
     3.0286187302651326    2.8849374348541050    8.8528976854798529
 Sr  Co  O  
   8   8  20
Selective dynamics
Direct
 -0.0230683135525316  0.2741299708954569  0.8466164450129601   T   T   T
  1.0324010329625408  0.7418301159561520  0.1542457814110988   T   T   T
  0.0104529078386840  0.1470320016434150  0.4019841945334622   T   T   T
  1.0003479574525236  0.8639316471692066  0.5939194552324689   T   T   T
  0.4902086350074943  0.7828890751135986  0.8509386926956692   T   T   T
  0.5133959862477312  0.2008658842895611  0.1564960191600346   T   T   T
  0.5202683031039718  0.6164244095966321  0.3840469216780861   T   T   T
  0.4988137081650502  0.3846967324126565  0.5948335795117927   T   T   T
 -0.0017979890054013 -0.0009579525286990 -0.0055710770995040   T   T   T
  0.4994493627922150  0.0121031781094064  0.5030796794692479   T   T   T
  0.5462675963474862  0.9227358992418977  0.2431586552402133   T   T   T
  0.4647757911854721  0.0793432599830751  0.7700443440227043   T   T   T
  0.5253780515350992  0.4941254448761256 -0.0074371579079058   T   T   T
  0.0007715625145458  0.5085588386592440  0.4918487820891052   T   T   T
 -0.0054605872900853  0.4045862736310173  0.2229854689835848   T   T   T
  0.9715383653668751  0.5945428287335710  0.7609231604487793   T   T   T
  0.3072252627986368  0.8644762242071197  0.3677855295850320   T   T   T
  0.7010526443615884  0.1232906291510797  0.6520697733919174   T   T   T
  0.7507906731849708  0.8938516601727219  0.3864543740443798   T   T   T
  0.2558509678867897  0.1120247050965670  0.6348854013655679   T   T   T
  0.4794636642869989  0.1360250958055263  0.3888111423136096   T   T   T
  0.8193366983808477  0.9916605928163461  0.1618743012335912   T   T   T
  0.2100763677919616 -0.0015553621426100  0.8355823803551848   T   T   T
  0.6802726737703938  0.0564133906660515  0.8932917674676930   T   T   T
  0.3416336791690795  0.9157651101464571  0.1030692934325357   T   T   T
  0.7722638470861014  0.3739830444328477  0.3742975003251931   T   T   T
  0.2241022511329194  0.6387124674841043  0.6312197655970874   T   T   T
  0.2379932235519716  0.3873602646732403  0.3568443832996278   T   T   T
  0.7529101713453936  0.6385857551082358  0.6091527507917850   T   T   T
  0.0117965266604345  0.3982708971483055  0.6236455200618293   T   T   T
  1.0001945896301931  0.6080682616491710  0.3492699737092203   T   T   T
  0.6974537730673731  0.5154074183160343  0.8425928882250405   T   T   T
  0.0665018325098129  0.2197183450546005  0.0858380736856646   T   T   T
  0.9527403627402058  0.7808966669172497  0.9052183526842280   T   T   T
  0.2230993703287197  0.5151686642457823  0.9607959017806850   T   T   T
  0.7063491979708442  0.4488887079184787  0.1198880001170158   T   T   T
