Sr Co O 
 1.0000000000000000
     4.6928223168465646   -2.7681026237787001   -0.7474349971262277
    -4.7333623273749632   -2.8219370412771871    0.7594523429186225
     3.2058453743918043    0.0085310302957168  -18.9644194365090826
 Sr  Co  O  
   8   8  21
Selective dynamics
Direct
  0.3261198971672722  0.6824467181187062  0.5704410115297083   T   T   T
  0.7052012179241383  0.2993532054725207  0.9408658260346749   T   T   T
  0.1124847056495063  0.8968790720749311  0.8288101390719044   T   T   T
  0.8371838718220677  0.1261865533416774  0.7130455097414014   T   T   T
  0.2956446074184906  0.7033144111128775  0.0616753872707820   T   T   T
  0.7557642765788172  0.2930666932301555  0.4125456253453912   T   T   T
  0.1543623522715461  0.8640810509227205  0.2885574558730246   T   T   T
  0.8872358352744831  0.1205152946546870  0.1806685151488729   T   T   T
  0.0001569647137645  0.0008163531581927  0.0019525305041513   T   T   T
  0.4680861958281269  0.4731060026158541  0.7447034394557679   T   T   T
  0.4073801641767871  0.5912939594950241  0.8817094135576884   T   T   T
  0.5768058367966762  0.3101603135460897  0.6017094041387104   T   T   T
  0.0329893865301351 -0.0104496935452306  0.5023950229695964   T   T   T
  0.5217475907222919  0.5245037207422423  0.2535202793558184   T   T   T
  0.4437379060199074  0.6373794782230072  0.3900309050610275   T   T   T
  0.5944322099110271  0.4096080292570418  0.1181635803121349   T   T   T
  0.5706261904634233  0.3595105293835638  0.8113629654043069   T   T   T
  0.1313664420099450  0.4133585101641156  0.8149286792428604   T   T   T
  0.5531217717681114  0.6355260070399080  0.6626006209756938   T   T   T
  0.3333336613882666  0.1088848155034280  0.6839531430303140   T   T   T
  0.6203788685803850  0.8257980502457928  0.8065265499356072   T   T   T
  0.2541773372627811  0.8404506823665614  0.9368775101589922   T   T   T
  0.8758914247262937  0.2116758620917761  0.5784573514490612   T   T   T
  0.1773538968265361  0.3094530932223982  0.9405105405439906   T   T   T
  0.3916320743451293  0.2503633685064169  0.5245032758143919   T   T   T
  0.7097313416720923  0.7603049203052487  0.9348884965243064   T   T   T
  0.6186468485360499  0.4159466951664978  0.3230425443788888   T   T   T
  0.4224953586614141  0.6341068880642347  0.1856788569913638   T   T   T
  0.1844368600664768  0.4462324948921991  0.3213757597107648   T   T   T
  0.8621425573620576  0.5949274114287485  0.1859615201972194   T   T   T
  0.3870935148259719  0.1713177547083977  0.1923381801383491   T   T   T
  0.6584164970485749  0.8876252553352538  0.3106744539544599   T   T   T
  0.1616679035206452  0.7096324531461058  0.4634158850029385   T   T   T
  0.7503611594627879  0.1610688202523508  0.0647936649560061   T   T   T
  0.8230064851932681  0.6873601570423427  0.0591595373147752   T   T   T
  0.2886649020784887  0.2360836391648828  0.0662692183711973   T   T   T
  0.7171218705808079  0.8071117429359778  0.4548873262772126   T   T   T
