Sr Co O 
 1.0000000000000000
     4.7007140222578956   -2.7803957848355334   -0.8546425181859193
     4.6018815283730072    8.2778389482936277   -0.8057426648365799
    -1.8141543579459387    0.0627273149026574    9.5422721291715060
 Sr  Co  O  
   8   8  20
Selective dynamics
Direct
  0.4442244487945123  0.1420773699433345  0.8892595599155644   T   T   T
  0.0826111612494948  0.3466968177359888  0.1630988682221705   T   T   T
  0.1880447534319881  0.0745912781798400  0.3706842912761115   T   T   T
  0.3092432099394049  0.4349399079393863  0.6037288613721268   T   T   T
  0.9420174638977307  0.6553817217155641  0.8428488923256161   T   T   T
  0.5626217567386841  0.8698917271156108  0.1515933284649434   T   T   T
  0.6913182614669419  0.5556970498629020  0.3951124004890050   T   T   T
  0.7968490985586127  0.9338883336597503  0.5966248901742256   T   T   T
 -0.0040560524602082 -0.0123874200750010  0.0038948347691333   T   T   T
  0.7569742031922366  0.2489508132698935  0.5158610232392211   T   T   T
  0.6230784835194659  0.2099764844074690  0.2426310259425608   T   T   T
  0.8503662161703947  0.2978803871717700  0.7743404581632684   T   T   T
  0.5093483402244940  0.4988520161915911  0.0052087060446622   T   T   T
  0.2394106976381168  0.7456277790375367  0.4859846109113921   T   T   T
  0.1191783340080652  0.7021466765796011  0.2207419021298255   T   T   T
  0.4045885855768052  0.7928755395669564  0.7710926053778167   T   T   T
  0.9283930994052382  0.3097878060308255  0.3902540660787906   T   T   T
  0.5573724960316361  0.1808097492687342  0.6272490323211054   T   T   T
  0.4647606121989677  0.3019967157397823  0.3805972411292541   T   T   T
  0.0549008573657547  0.1952410791078496  0.6782109497029319   T   T   T
  0.8180688371803994  0.4344953331316388  0.6406018675140116   T   T   T
  0.7045077076478766  0.0764059471808926  0.3771228308449144   T   T   T
  0.2932887624216032  0.1064337914827155  0.1169109695158407   T   T   T
  0.5409656466758422  0.3735662644519679  0.1329549678122868   T   T   T
  0.7488109177047360  0.3828439072161587  0.9259139135380834   T   T   T
  0.8072835434607327  0.1112737570887050  0.1197477423977210   T   T   T
  0.4080133373772588  0.8323234157578224  0.3791190292792622   T   T   T
  0.0860156023948658  0.7077196815480711  0.6220702604001298   T   T   T
  0.9272082790208582  0.7854688472600334  0.3513084117085520   T   T   T
  0.5446644376632378  0.7084491962285981  0.6230132476476431   T   T   T
  0.1885652531204890  0.5626781612531672  0.3441339510318068   T   T   T
  0.6942714087391320  0.9313629209560065  0.8391180440762691   T   T   T
 -0.0247267971054569  0.8189406428476173  0.0913756966735825   T   T   T
  0.4630843880418533  0.6041656360854651  0.8602062492718814   T   T   T
  0.2214803536149591  0.8979524223148244  0.8776266482860319   T   T   T
  0.3007523423413274  0.6134980403256720  0.0904583789135308   T   T   T
