Sr Co O 
 1.0000000000000000
     4.8562906589082182   -2.6893986844939728   -0.6301273307456642
    -4.9109373900612461   -2.7802814674921588    0.6028922045868856
     2.5558200906619564   -0.0832500185939866  -19.0095464307883510
 Sr  Co  O  
   8   8  21
Selective dynamics
Direct
  0.2696909660756961  0.6258587801483532  0.5459103805151221   T   T   T
  0.7455150018772797  0.3564216961821314  0.9466942884859513   T   T   T
  0.2057113001108731  0.8913618664020644  0.8087663845435777   T   T   T
  0.8574179047370697  0.0518840271669620  0.6667676134917956   T   T   T
  0.2620311877696049  0.7506277847535036  0.0857838390567822   T   T   T
  0.6837170897854534  0.2252187286192674  0.4245661557551705   T   T   T
  0.0911892858363633  0.8414461973245549  0.3134542159227022   T   T   T
  0.8352452561048639  0.1379644249674841  0.2045531247018541   T   T   T
 -0.0234483112395446  0.0526588933150608  0.0175241955908580   T   T   T
  0.5109507783594521  0.4791167306774931  0.7478704353331972   T   T   T
  0.5593462039175254  0.7174824850191845  0.8805265640187636   T   T   T
  0.5452764981768571  0.3296728284540890  0.6082113121354058   T   T   T
 -0.0273615871770653 -0.0728680551552133  0.4919157216439595   T   T   T
  0.4786626909617676  0.4877204723903634  0.2464852868623078   T   T   T
  0.3826757299090187  0.5363686015265978  0.3779154729622923   T   T   T
  0.5782997543712260  0.4364989698739141  0.1148283344199261   T   T   T
  0.5961688048115219  0.4036491144876164  0.8294817090741388   T   T   T
  0.3648188961278273  0.5346226301368282  0.6804783813501660   T   T   T
  0.2591271190592465  0.7484012745302554  0.9219787847961675   T   T   T
  0.4172375509131823  0.1362233127500438  0.6971946207412048   T   T   T
  0.6764850135829289  0.8511077892161121  0.7850554594400113   T   T   T
  0.7211716472389399  0.1305522154671299  0.5615343944845539   T   T   T
  0.8181609098870344  0.6617572973116845  0.5716021315375763   T   T   T
  0.2460041793077008  0.1687448137441721  0.5525200117278543   T   T   T
  0.8955348776629851  0.9812910708325656  0.9211646508935688   T   T   T
  0.5565705355210689  0.3380595039793958  0.3119941678566275   T   T   T
  0.4091180934915852  0.6378943083262041  0.1795694692051975   T   T   T
  0.1306918828098458  0.3884310583638530  0.3070144510771008   T   T   T
  0.8273186985487098  0.5851916370466748  0.1871833186973938   T   T   T
  0.3350819278773344  0.1612831690116660  0.1801153593789328   T   T   T
  0.6156767643596388  0.8174381817589896  0.3127283988769446   T   T   T
  0.2189997864959764  0.7489799763688622  0.4320091738578979   T   T   T
  0.7437975800063052  0.2100100870575431  0.0614284697895798   T   T   T
  0.1321340716557067  0.2186310050777335  0.4272090073691627   T   T   T
  0.8394966486669053  0.7325166417448543  0.0565408471995462   T   T   T
  0.3296630794289643  0.3133530822798268  0.0404093450466453   T   T   T
  0.6698215477284164  0.6804273681763354  0.4406645017583881   T   T   T
