Sr Co O 
 1.0000000000000000
    -0.0000000000000000    5.5733597647389832    0.0000000000000000
    -9.5052919745890225    0.0000000000000000    1.4810433314518772
    -1.5608667791590225    0.0000000000000000    9.4397062702335361
 Sr  Co  O  
   8   8  20
Selective dynamics
Direct
 -0.0000000000000000  0.7046554527260723  0.8616030566452078   T   T   T
  0.0000000000000000  0.2736408868949659  0.1294711355785941   T   T   T
  0.0000000000000000  0.9102494528957434  0.3697590002726454   T   T   T
  0.0000000000000000  0.0869710793558047  0.6438562476302417   T   T   T
  0.4999999999999998  0.1703963716422217  0.8897465802346103   T   T   T
  0.4999999999999998  0.7866371466552613  0.1335418936113075   T   T   T
  0.4999999999999998  0.3742661804143612  0.3408595666687518   T   T   T
  0.4999999999999998  0.6651223325972305  0.5945725906364282   T   T   T
  0.0000000000000000 -0.0018883887664791  0.0007097251454922   T   T   T
  0.0000000000000000  0.5352553648169408  0.4814403384714560   T   T   T
  0.0000000000000000  0.5895349604382325  0.2255731406197917   T   T   T
  0.0000000000000000  0.3955258243722293  0.7653185188080375   T   T   T
  0.4999999999999998  0.4991957556684760 -0.0308588897787280   T   T   T
  0.4999999999999999  0.0110608623161842  0.5022395156916682   T   T   T
  0.4999999999999999  0.0919626038935170  0.2317090666707405   T   T   T
  0.4999999999999998  0.9005096200500391  0.7726100433775583   T   T   T
  0.0000000000000000  0.3491798508546685  0.5857915154541302   T   T   T
  0.2300582025401998  0.6426729954772401  0.3520730958592077   T   T   T
  0.7699417974598005  0.6426729954772401  0.3520730958592077   T   T   T
  0.0000000000000000  0.2053029607291796  0.8809711889813909   T   T   T
  0.2321994505263278  0.5272311289341741  0.1305165425495054   T   T   T
  0.7482596920365790  0.4957041243154647  0.8029199344149378   T   T   T
  0.2517403079634222  0.4957041243154647  0.8029199344149378   T   T   T
  0.7678005494736735  0.5272311289341741  0.1305165425495054   T   T   T
  0.4999999999999998  0.9047291152788492  0.3713346293089522   T   T   T
  0.4999999999999999  0.1048426322096115  0.6503814309434743   T   T   T
  0.7294829018405815  0.1373474793058330  0.3674665619619687   T   T   T
  0.2689476806187879  0.8785856925476455  0.6260799241849975   T   T   T
  0.7310523193812153  0.8785856925476455  0.6260799241849975   T   T   T
  0.2705170981594158  0.1373474793058330  0.3674665619619688   T   T   T
  0.4999999999999998  0.2953013149198910  0.0869403992689665   T   T   T
  0.4999999999999998  0.7009637781208121  0.8866201992384268   T   T   T
  0.7574260250829533  0.0247248559902432  0.1307345092055811   T   T   T
  0.2398779114105929  0.9270262730559868  0.9008139123914887   T   T   T
  0.7601220885894068  0.9270262730559868  0.9008139123914887   T   T   T
  0.2425739749170486  0.0247248559902432  0.1307345092055811   T   T   T
