Sr Co O 
 1.0000000000000000
     4.8483844301654866   -2.7711110910924264   -0.5904374228739971
    -4.8618761146471909   -2.7768022562699439    0.6435409319385306
     2.4993715151216649    0.1863741365865529  -19.1003994834446793
 Sr  Co  O  
   8   8  20
Selective dynamics
Direct
  0.3865586667981166  0.7544296013362441  0.5507886667292270   T   T   T
  0.5928777455642482  0.2390289954298058  0.9587758130817446   T   T   T
  0.0563298138104352  0.7839169281017955  0.8230824347844248   T   T   T
  0.9672577189854447  0.1058646113700076  0.6687219385248794   T   T   T
  0.2248908418721262  0.7366461132870780  0.0881531964431189   T   T   T
  0.7774684033101023  0.3683239238099573  0.4443126827822598   T   T   T
  0.1841710444027864  0.9615279756384625  0.3220270666782300   T   T   T
  0.8491715592397248  0.1685638776793639  0.1968616159201940   T   T   T
 -0.0939393974603280  0.0048205782367993  0.0213839518597748   T   T   T
  0.4974834832847694  0.3816950024420147  0.7553938642564683   T   T   T
  0.2454009704486287  0.4429763011120756  0.8878999048615589   T   T   T
  0.6885799081824173  0.4235920585372475  0.6153217244431929   T   T   T
  0.0925900662771546  0.0634569743461998  0.4991112851749041   T   T   T
  0.5445405401414907  0.5691217932292124  0.2523185609921517   T   T   T
  0.5006618419898812  0.6816954473689841  0.3852895596346950   T   T   T
  0.5271080834022644  0.4228799717655617  0.1239164262140731   T   T   T
  0.1545118991149509  0.3817940821195336  0.7887055732218503   T   T   T
  0.8173225123997166  0.6527798646312503  0.7097940606177991   T   T   T
  0.4617368105492334  0.1097646439841162  0.6758576780556343   T   T   T
  0.2079597609500239  0.7330695174923851  0.9368918784896634   T   T   T
  0.8631148522519833  0.2196612716309511  0.5598975447140497   T   T   T
 -0.0190074243974374  0.1077809303371483  0.9284400676842218   T   T   T
  0.9102778984714253  0.7338764413991654  0.5667899695835619   T   T   T
  0.3723707139020814  0.3034857216958186  0.5647785793649853   T   T   T
  0.5649934936148340  0.3925038308625428  0.8507273254220368   T   T   T
  0.6666693779761202  0.4715638006449960  0.3181742072568809   T   T   T
  0.3523862907947669  0.6237390807293085  0.1914696611816244   T   T   T
  0.8334487069436100  0.6719956227330386  0.1785914133374448   T   T   T
  0.3856299910328772  0.2035610425210007  0.2028484395539116   T   T   T
  0.6557996415051692  0.9164391048861436  0.3117111768858558   T   T   T
  0.3248180136657961  0.8984474452454213  0.4368222175787543   T   T   T
  0.7255012027482909  0.2196621468796915  0.0728599664071059   T   T   T
  0.2435641744571445  0.3711761267916933  0.4271997548111414   T   T   T
  0.6528189298452963  0.6569311993269237  0.0467478473080054   T   T   T
  0.2075194884515643  0.1625951620849690  0.0734541971101942   T   T   T
  0.8054123933513604  0.8326326518812766  0.4415798521154524   T   T   T
