Sr Co O 
 1.0000000000000000
     4.7769657012509947   -2.7763465267621839   -0.7280342092767140
    -4.7769657012509947   -2.7763465267621834    0.7280342092767140
     3.0012893488864831    0.0000000000000000  -18.8921972480927849
 Sr  Co  O  
   8   8  20
Selective dynamics
Direct
  0.3134420794978181  0.6865579205021796  0.5571388111201103   T   T   T
  0.7093854761512649  0.2906145238487334  0.9444488483283140   T   T   T
  0.0755026104273718  0.9244973895726250  0.8223439918005823   T   T   T
  0.8598676005151309  0.1401323994848680  0.6780379486480905   T   T   T
  0.2960561831095134  0.7039438168904866  0.0793470048789777   T   T   T
  0.7352067786488037  0.2647932213511965  0.4288126574314602   T   T   T
  0.1298633280577936  0.8701366719422056  0.3119105231575611   T   T   T
  0.8945209204435570  0.1054790795564430  0.1922683179269479   T   T   T
 -0.0007714004533333  0.0007714004533332  0.0119656288035547   T   T   T
  0.4077762900954942  0.5922237099045056  0.7535937085572498   T   T   T
  0.4109364755908879  0.5890635244091105  0.8889342432833270   T   T   T
  0.6042431616941043  0.3957568383058949  0.6046906995463655   T   T   T
  0.0132520574344088 -0.0132520574344101  0.4990093268750566   T   T   T
  0.4875918709697368  0.5124081290302622  0.2533493543143738   T   T   T
  0.4102016154812883  0.5897983845187114  0.3869312968831225   T   T   T
  0.6087592163981900  0.3912407836018105  0.1215640861258755   T   T   T
  0.6028177789989910  0.3971822210010073  0.7051190395975646   T   T   T
  0.2840277748525017  0.7159722251474981  0.6994087927912878   T   T   T
  0.1157246835406699  0.4167236168760798  0.8313552555901658   T   T   T
  0.5832763831239177  0.8842753164593287  0.8313552555901659   T   T   T
  0.8031680916596297  0.1968319083403691  0.5520541188722227   T   T   T
  0.2355077011888689  0.2762457569647968  0.9346848428723999   T   T   T
  0.7926047909612757  0.7386122090594173  0.5751705058650998   T   T   T
  0.2613877909405817  0.2073952090387219  0.5751705058651000   T   T   T
  0.7237542430352036  0.7644922988111329  0.9346848428723999   T   T   T
  0.4060598929877698  0.5939401070122290  0.1767062222452649   T   T   T
  0.1418709577979011  0.3953701917809314  0.3169168178804651   T   T   T
  0.8484843034969758  0.6069392649816184  0.1981795271223891   T   T   T
  0.3930607350183820  0.1515156965030237  0.1981795271223891   T   T   T
  0.6046298082190663  0.8581290422020975  0.3169168178804651   T   T   T
  0.2154620110888902  0.7845379889111077  0.4533586559721242   T   T   T
  0.8108673355395787  0.1891326644604220  0.0786968853451284   T   T   T
  0.2537715619027720  0.2592939163192562  0.4282038192086757   T   T   T
  0.8473476469603781  0.6623638439090472  0.0537941274604752   T   T   T
  0.3376361560909530  0.1526523530396210  0.0537941274604752   T   T   T
  0.7407060836807433  0.7462284380972286  0.4282038192086758   T   T   T
