Sr Co O 
 1.0000000000000000
    -4.7221101728269783    2.7627577917368904    0.6894035135471177
    -4.7147129320213459   -8.2910336575359409    0.7719947362918412
     3.1816482053256832    2.6965365564153561    8.6093041802045729
 Sr  Co  O  
   8   8  20
Selective dynamics
Direct
 -0.0000292882595115  0.3085653614309040  0.8580123371717575   T   T   T
  1.0000292882595103  0.6914346385690959  0.1419876628282425   T   T   T
  0.0003524018870954  0.1438404296847331  0.4038788592935307   T   T   T
  0.9996475981129045  0.8561595703152668  0.5961211407064695   T   T   T
  0.5095632316140741  0.7709607230229046  0.8369089405803150   T   T   T
  0.4904367683859265  0.2290392769770964  0.1630910594196863   T   T   T
  0.4927424711404275  0.6256704818807660  0.3987407163917207   T   T   T
  0.5072575288595739  0.3743295181192348  0.6012592836082805   T   T   T
 -0.0000000000000001  0.0000000000000001  0.0000000000000000   T   T   T
  0.5000000000000006  0.0000000000000005  0.5000000000000002   T   T   T
  0.5450416255907741  0.9220616608481627  0.2351674261667416   T   T   T
  0.4549583744092268  0.0779383391518378  0.7648325738332594   T   T   T
  0.5000000000000009  0.5000000000000008 -0.0000000000000001   T   T   T
  0.0000000000000005  0.5000000000000001  0.5000000000000002   T   T   T
 -0.0045147489051877  0.3981976391820067  0.2280857001174383   T   T   T
  1.0045147489051880  0.6018023608179940  0.7719142998825619   T   T   T
  0.3028470849995876  0.8592206754225490  0.3314187955253707   T   T   T
  0.6971529150004127  0.1407793245774513  0.6685812044746299   T   T   T
  0.7676634327677202  0.8953220857375452  0.3855857885587101   T   T   T
  0.2323365672322810  0.1046779142624554  0.6144142114412899   T   T   T
  0.5016789452957218  0.8767431816677207  0.6214387838846458   T   T   T
  0.4983210547042766  0.1232568183322805  0.3785612161153548   T   T   T
  0.7213066043415917  0.9303229126205118  0.0823046150691824   T   T   T
  0.2786933956584076  0.0696770873794894  0.9176953849308177   T   T   T
  0.7668096926785920  0.3786362565352741  0.3699148218533648   T   T   T
  0.2331903073214079  0.6213637434647249  0.6300851781466352   T   T   T
  0.2313073821504909  0.3830792754725669  0.3751671101327548   T   T   T
  0.7686926178495099  0.6169207245274340  0.6248328898672455   T   T   T
  0.0090275176253822  0.3958669246980960  0.6400227697002644   T   T   T
  0.9909724823746188  0.6041330753019043  0.3599772302997356   T   T   T
  0.2615986862522358  0.4436239661540176  0.1073926923804142   T   T   T
  0.7384013137477656  0.5563760338459829  0.8926073076195861   T   T   T
 -0.0087755161861418  0.1790709911299071  0.1417138590618872   T   T   T
  1.0087755161861427  0.8209290088700939  0.8582861409381137   T   T   T
  0.2595180142699329  0.5851956440134836  0.9162568226744982   T   T   T
  0.7404819857300681  0.4148043559865163  0.0837431773255004   T   T   T
