Sr Co O 
 1.0000000000000000
    -4.7144030666221122    2.7742201433762030    0.7719988968916405
    -4.7652609818671525   -8.4672179256713793    0.6786115863611982
     3.1298922447282949    2.9605802841771158    8.6110684657835233
 Sr  Co  O  
   8   8  20
Selective dynamics
Direct
  0.0017813668988400  0.2797635006619734  0.8401776194615982   T   T   T
  1.0089212612217247  0.6874096021321052  0.1444796138310476   T   T   T
 -0.0058788114316802  0.1490713672780232  0.4120642307671749   T   T   T
  0.9753211347066630  0.8632604160459443  0.6089273363032602   T   T   T
  0.4973740553111282  0.7863534418224361  0.8416918041805077   T   T   T
  0.4907791139142937  0.2312840035412954  0.1169958933473083   T   T   T
  0.5097532398134247  0.6063598947390167  0.4101749045453583   T   T   T
  0.5141595749776785  0.3892998259687884  0.6429428929898917   T   T   T
 -0.0260025065557145 -0.0092850814877936 -0.0298982897546610   T   T   T
  0.4645665780780546 -0.0378719529848496  0.4724483643878156   T   T   T
  0.5706547451961755  0.9322902873527218  0.2144886001748742   T   T   T
  0.4877360812765010  0.0799668445894697  0.7482287574307775   T   T   T
  0.5033471283779305  0.4841323707548288 -0.0054814003119153   T   T   T
  0.0145590575952477  0.4980744148865945  0.5102459437957730   T   T   T
 -0.0157081336110369  0.4166983215481202  0.2420088320703820   T   T   T
  1.0155196379782392  0.5912382000898163  0.7871770646693937   T   T   T
  0.2711591476846396  0.9315655477690523  0.2992702702087547   T   T   T
  0.6884704467157159  0.1093756379439813  0.5945774664583793   T   T   T
  0.7016543733419575  0.8423363003276657  0.3423474333423943   T   T   T
  0.2323733978790885  0.0801970497627599  0.6080896657569921   T   T   T
  0.5019850432993852  0.8737660164362908  0.6199568701266804   T   T   T
  0.7778421828742745  1.0419335988554124  0.1493794737554454   T   T   T
  0.2685017176688852  0.0390500033139847  0.9028056654796076   T   T   T
  0.4728845449596613  0.2845512471346041  0.8506930694372500   T   T   T
  0.7648204507840681  0.0663402766445044  0.8648861847284457   T   T   T
  0.7720203055467505  0.3760840256172749  0.3790196364035462   T   T   T
  0.2428796942123549  0.6186334445724618  0.6460487990953637   T   T   T
  0.2299056111606803  0.3629873344945071  0.3610805463018815   T   T   T
  0.7833187559450842  0.6169244213616778  0.6484149740642461   T   T   T
  0.0236275806663116  0.3895051976134067  0.6407069177984311   T   T   T
  1.0257331610311469  0.6229634968452065  0.3959963789427676   T   T   T
  0.1936206463919533  0.4257030519456389  0.0995737389301078   T   T   T
  0.7833270704948980  0.5354529399759327  0.9032651240316915   T   T   T
  0.9912552612785767  0.7925184499787282  0.9250292440253830   T   T   T
  0.2943285989342051  0.5823429495131184  0.9140618198739014   T   T   T
  0.6985583852732956  0.4698735794704073  0.1494242933655371   T   T   T
