Sr Co O 
 1.0000000000000000
    -4.6912431959287240    2.7476819435788622    0.7157677063218598
    -4.7499159834645779   -8.3037604985942188    0.8199353329903631
     3.1243612895797579    2.6792076842532291    8.8453679255342266
 Sr  Co  O  
   8   8  20
Selective dynamics
Direct
 -0.0122726905512539  0.3097218397478683  0.8656237693346251   T   T   T
  0.9992757960548591  0.7272991549930202  0.1547796477865581   T   T   T
 -0.0006247222789361  0.1066238810961797  0.3626557917385202   T   T   T
  0.9821762897974667  0.8479814447472765  0.5950111152940016   T   T   T
  0.4812249916900572  0.7869029036190661  0.8997698434938748   T   T   T
  0.5010240552696797  0.2049246331559657  0.1509397399056305   T   T   T
  0.5217863203347194  0.6187654462844774  0.3515023075015541   T   T   T
  0.5363864164330624  0.3613566829595793  0.5784127749934163   T   T   T
 -0.0036322665511908 -0.0085680459884613 -0.0081280821522873   T   T   T
  0.4975099753849889 -0.0031419117539104  0.5126949286543891   T   T   T
  0.5024074840137691  0.9162594050901439  0.2467375063037850   T   T   T
  0.5253073956588621  0.0652818910260158  0.7929771540529433   T   T   T
  0.4845384318609189  0.5100308171995720  0.0009207468551057   T   T   T
  0.0198827163400794  0.4875381207375741  0.4856941483246393   T   T   T
  0.0201724583931558  0.4151226670989755  0.2230646886228811   T   T   T
  0.9669189108248373  0.5891870796916963  0.7690871848546461   T   T   T
  0.2648304402891876  0.8854758138944110  0.3801881558928266   T   T   T
  0.6985966495809480  0.1293889339911454  0.6564202041961098   T   T   T
  0.7417079540026953  0.8763308505526445  0.3783186951798099   T   T   T
  0.4496880074844538  0.8894107151944374  0.6427034431533299   T   T   T
  0.4982425051442842  0.1129985586736639  0.3878915756931139   T   T   T
  0.7545064838060623  0.9641876866284204  0.1323512250731409   T   T   T
  0.2507594527939724  0.0841244003028541  0.8966051142349446   T   T   T
  0.5067518602209096  0.7134361317044887  0.1323408253361126   T   T   T
  0.7627726766020145  0.1148233247047709  0.9349491134434893   T   T   T
  0.2433598109506263  0.9685749936174486  0.1274829092848209   T   T   T
  0.7982201145411872  0.3471139271185532  0.3361684414360025   T   T   T
  0.2643936806200530  0.3823162045182354  0.3623012977092828   T   T   T
  0.7810065752034808  0.6018102094197147  0.6039615389075552   T   T   T
  0.0639677012816466  0.3952880395911585  0.6301462771462768   T   T   T
  1.0313578369762160  0.6191331212204556  0.3769907445977931   T   T   T
  0.2735675653833704  0.4161695770514286  0.0953274941694390   T   T   T
  0.6649165385444403  0.5045737245791687  0.8403613488541641   T   T   T
  0.9611942825448485  0.7970495646438551  0.8419661493690752   T   T   T
  0.1844029810793306  0.5748089109279104  0.9090950956432847   T   T   T
  0.7765259112103746  0.4515494506249251  0.1033870212502456   T   T   T
