Sr Co O 
 1.0000000000000000
     0.0000000000000001    5.4089616134475964   -0.0000000000000001
     9.8744456606394682    0.0000000000000003   -1.2942379028044599
    -3.5823045530280844   -2.7044808067237982   -8.7942189525117271
 Sr  Co  O  
   8   8  20
Selective dynamics
Direct
  0.5872450377708522  0.8546946635974436  0.1421208289252048   T   T   T
  0.9451242088456481  0.6453053064025571  0.8578791710747955   T   T   T
  0.7926682300990113  0.9824392466242604  0.6305801046391620   T   T   T
  0.6620881254598492  0.5175607233757414  0.3694198953608376   T   T   T
  0.0533500607180523  0.3368182520916730  0.1452751241155324   T   T   T
  0.4080749366025199  0.1631817179083282  0.8547248758844684   T   T   T
  0.2723519747004962  0.4213633762497511  0.6082062089801573   T   T   T
  0.1641457657203390  0.0786365937502496  0.3917937910198427   T   T   T
 -0.0040158083390173 -0.0262228678583459  0.0006513303634894   T   T   T
  0.7223840696109439  0.2499999850000008  0.5000000000000011   T   T   T
  0.8829538424603588  0.3083257475696484  0.7672028718028439   T   T   T
  0.6157509706575153  0.1916742224303523  0.2327971281971565   T   T   T
  0.4953328612974938  0.5262228378583476 -0.0006513303634896   T   T   T
  0.1528010048310084  0.7499999850000006  0.5000000000000004   T   T   T
  0.3971457717059714  0.8105370008250109  0.7848102422070459   T   T   T
  0.1123355294989264  0.6894629691749907  0.2151897577929553   T   T   T
  0.7804421210564445  0.4312369928222821  0.6410991320907783   T   T   T
  0.6393429889656661  0.0687629771777181  0.3589008679092217   T   T   T
  0.0271401019944590  0.1916580899078534  0.6126503657338422   T   T   T
  0.4232715070575070  0.2954382216384951  0.3655876134065752   T   T   T
  0.9144897362606174  0.3083418800921470  0.3873496342661582   T   T   T
  0.5576838936509327  0.2045617483615056  0.6344123865934260   T   T   T
  0.9165565116346547  0.1902809045256830  0.8830713606495404   T   T   T
  0.5334851509851154  0.3097190654743180  0.1169286393504613   T   T   T
  0.2243851125538235  0.4142767931763056  0.8644884676805371   T   T   T
  0.8598966448732894  0.0857231768236955  0.1355115323194651   T   T   T
  0.2864504251097058  0.9162502208817687  0.6359844450226435   T   T   T
  0.1504659800870630  0.5837497491182329  0.3640155549773575   T   T   T
  0.9845162423993884  0.8236846374500523  0.3520754289249238   T   T   T
  0.1324408134744662  0.6763153325499478  0.6479245710750777   T   T   T
  0.4802308949552447  0.6766095354481905  0.8947694028627949   T   T   T
  0.0854614920924509  0.8233904345518112  0.1052305971372066   T   T   T
  0.7428811365120122  0.8758938791193860  0.8253359289178800   T   T   T
  0.8495977126046751  0.5410057544471032  0.0616177121600688   T   T   T
  0.4175452075941335  0.6241060908806155  0.1746640710821228   T   T   T
  0.2879800004446063  0.9589942155528971  0.9383822878399320   T   T   T
