Sr Co O 
 1.0000000000000000
     4.6921812246484551   -2.7937415718863146   -0.7978250139800157
     4.7129865588815596    8.4491778809448181   -1.1316917629129182
    -1.8383415665080034   -0.2677262471724775    9.4607745596518704
 Sr  Co  O  
   8   8  20
Selective dynamics
Direct
  0.3975726165734729  0.1636234771734159  0.8212108793705422   T   T   T
  0.0664805807078674  0.3531449245351388  0.1180502216930829   T   T   T
  0.1894564055546485  0.0569123280812630  0.3667747087380375   T   T   T
  0.3069591170009811  0.4089017293567181  0.6020921568095258   T   T   T
  0.9359300309497861  0.6215091871662530  0.8837780220580518   T   T   T
  0.5811405013058629  0.8130685448276080  0.1704240459926869   T   T   T
  0.6920464724537734  0.5257642172208206  0.3708331908521323   T   T   T
  0.7929329884015253  0.9448382729331403  0.5872456896587259   T   T   T
 -0.0900332857826323  0.0020986998250252 -0.0196578604526432   T   T   T
  0.7425742610755829  0.2321072042809147  0.4647540430255243   T   T   T
  0.6016024195311120  0.1699430366922390  0.1885260297399213   T   T   T
  0.8627737723309827  0.2889496073049693  0.7408926263773546   T   T   T
  0.4950832158214067  0.4869907516960472 -0.0039124922095158   T   T   T
  0.2832965332231792  0.7519003426899439  0.5389150609140541   T   T   T
  0.1328305977646843  0.6829162207928202  0.2649702258703340   T   T   T
  0.4595340917573345  0.8264624878823537  0.8287705255356751   T   T   T
  0.9230378229248739  0.2826554457769886  0.3415353942977900   T   T   T
  0.5671468654845655  0.1783860758864945  0.5934205937221612   T   T   T
  0.4378261685547933  0.2717376215368888  0.3290267689893847   T   T   T
  0.0324498323132509  0.1833893227749151  0.6011792489722702   T   T   T
  0.8081649695157956  0.4134908214229121  0.6044970976652017   T   T   T
  0.6827087939610695  0.0522280192533902  0.3256396317658371   T   T   T
  0.1646499583853356  0.3976163043374162  0.8690576491413914   T   T   T
  0.5471117385911228  0.3027307152371062  0.0836017889905706   T   T   T
  0.9255014218762456  0.1303637079063239  0.8724849001983042   T   T   T
  0.6525117661880596  0.3993354508634664  0.8454910068207181   T   T   T
  0.4013830156438755  0.8209828987567247  0.3844249995683012   T   T   T
  0.2571546962680179  0.9107499157289056  0.6841275391379198   T   T   T
  0.9534270640697781  0.7735681070681770  0.4023433032170052   T   T   T
  0.6160027191783056  0.7428517896187997  0.6800353191916517   T   T   T
  0.2446024466042723  0.5665543611651541  0.4292482896965706   T   T   T
  0.8332519502943961  0.5802514331519634  0.1315007043644642   T   T   T
  0.5738607826582351  1.0017955024522385  1.0051430013569120   T   T   T
  0.0602029640716144  0.8829586886642222  0.0861751377388218   T   T   T
  0.4190644774596671  0.6759934509522358  0.9005443499063519   T   T   T
  0.3372597277216283  0.5817293420286603  0.1515559156923832   T   T   T
