Sr Co O 
 1.0000000000000000
    -0.0256707736226658    5.5773665402012860    0.0615370572619506
    -9.4616149216538847    0.0180471149383242    1.5489622851434344
    -1.6673844869149714    0.1165236492619145    9.4145236283624474
 Sr  Co  O  
   8   8  20
Selective dynamics
Direct
  0.0060903179225158  0.7389689165025944  0.8291586126429588   T   T   T
  0.0194700794143101  0.2784203694769817  0.1528876509563042   T   T   T
  0.0298075796189168  0.8817640591816934  0.3842722253084061   T   T   T
  0.0088238639069214  0.1154646763637494  0.6075614483386924   T   T   T
  0.4894101540517828  0.1924112524325083  0.8435894809319676   T   T   T
  0.4708483835661711  0.8014603114411853  0.1224996407769894   T   T   T
  0.5032813361296975  0.3531056561257424  0.4033380100854580   T   T   T
  0.4981228862856614  0.6453516757563351  0.6050263541732055   T   T   T
 -0.0002877372106522 -0.0023554376730507 -0.0130647271184262   T   T   T
  0.0126476739987340  0.4883557401755960  0.5112763537266888   T   T   T
 -0.0353022064972943  0.6003048734858962  0.2468420771468173   T   T   T
 -0.0215877552035164  0.3975446333620608  0.7830572862242049   T   T   T
  0.5806412990444058  0.5050966298208974  0.0065567839163726   T   T   T
  0.5167508311434221  0.0002816245626561  0.4842428379556143   T   T   T
  0.4907525629033453  0.1012943270972037  0.2174985320222759   T   T   T
  0.5058283231911477  0.9029447565170969  0.7570489433998674   T   T   T
 -0.0150443038931408  0.4010251700008944  0.3618235099910930   T   T   T
  0.0382227116766840  0.5955150219975376  0.6433005706830760   T   T   T
  0.2222150592513482  0.6174135579697300  0.3683447795334391   T   T   T
  0.7263946436287654  0.4060826046331359  0.6165532253379581   T   T   T
  0.1985567632365547  0.3360425825134907  0.6577047415332985   T   T   T
 -0.0312250097964664  0.7995670478914364  0.1510283535149123   T   T   T
 -0.0790333380754149  0.2048820852946989  0.9167696981872403   T   T   T
  0.8885910475365677  0.4782797478839109  0.9269378615773772   T   T   T
  0.6794787455154139  0.5606933414028163  0.1738552191854005   T   T   T
  0.5216276676271042  0.8923071821612680  0.3462043564988878   T   T   T
  0.5331316085942879  0.1030746640107871  0.6218098980280071   T   T   T
  0.7378140772288833  0.1255092367382480  0.3409031560185583   T   T   T
  0.2861782288924220  0.8790364089577882  0.6140481738769965   T   T   T
  0.7445364693269425  0.8733661188976856  0.6142219294740673   T   T   T
  0.2679588255142885  0.1241939640858029  0.3790017650673564   T   T   T
  0.4705724720165182  0.3140557929062566  0.0908361617712555   T   T   T
  0.4693495807050741  0.6798761521796747  0.8734772925318084   T   T   T
  0.2419902396740805  0.9547243645128056  0.8602012619883943   T   T   T
  0.7279198453462716  0.9409184967238948  0.8928833438132051   T   T   T
  0.2624670637809798  0.0510225450980176  0.1076027804022567   T   T   T
