Sr Co O 
 1.0000000000000000
    -4.8066395489226359    2.7073557816055462    0.6395748690920620
    -4.7864505229628866   -8.0906304211584850    0.7080208605705559
     3.4042673845855349    2.6343749261578484    8.7190020444127860
 Sr  Co  O  
   8   8  21
Selective dynamics
Direct
 -0.0110722512233428  0.2847526000663427  0.8790294453568702   T   T   T
  0.9894561920792112  0.7025124577757492  0.1390845781766850   T   T   T
 -0.0051192929587498  0.1212866410904319  0.3783486883087843   T   T   T
  1.0002321261073561  0.8819741554811233  0.6139695533085030   T   T   T
  0.5142727493490120  0.7878458952766552  0.8530063324762732   T   T   T
  0.5076691726986075  0.2229842507114454  0.1534933698725569   T   T   T
  0.4971746913909448  0.6328831967471898  0.3848997248584788   T   T   T
  0.5070420157430652  0.3741762603484622  0.6060087697460934   T   T   T
 -0.0155330236601900  0.0055531759616448 -0.0033138222329802   T   T   T
  0.4950709664323171  0.0021081543021811  0.4972976886535198   T   T   T
  0.5142933340523776  0.9111924914054883  0.2314355665731845   T   T   T
  0.4775923010647899  0.0859129338780793  0.7615258317494482   T   T   T
  0.4928371120984885  0.5057984049092565  0.0046828777762768   T   T   T
  0.0048514178325295  0.5186030132119824  0.5021230250789168   T   T   T
  0.0076425351778544  0.4060352740351614  0.2361919245041534   T   T   T
  1.0128027800882087  0.5883235665627535  0.7783703420254363   T   T   T
  0.2709062707888995  0.8795477440991749  0.3470417289828747   T   T   T
  0.7111336472335666  0.1354145698267830  0.6448278376216054   T   T   T
  0.7441247827203806  0.8849136240218605  0.3911968087991996   T   T   T
  0.2543379076668000  0.1260753369937702  0.6182130990066166   T   T   T
  0.4874992575453546  0.8752638207855834  0.6097621291599606   T   T   T
  0.4946247624478637  0.1142487446169054  0.3685953923200290   T   T   T
  0.7456781992780053  0.9633559314511878  0.1303490939022285   T   T   T
  0.2342435080501386  0.0490154544589633  0.8699916234435595   T   T   T
  0.4754716199309544  0.7209318837871211  0.0953452261173624   T   T   T
  0.7118410361475552  0.0721702425225759  0.8964445978850953   T   T   T
  0.7846161884646364  0.3796271596725286  0.3735422416372436   T   T   T
  0.2299943657788777  0.6206370846498533  0.6488193295279920   T   T   T
  0.2409777626252303  0.3961739276616518  0.3884149721582557   T   T   T
  0.7768609874291430  0.6168185636103267  0.6336418228085078   T   T   T
  0.9885712995516969  0.6155711614026067  0.3620241958108026   T   T   T
  0.2460210857585584  0.4503867743934221  0.1207477903328008   T   T   T
  0.7693272026231225  0.5226062932063649  0.8609911467698170   T   T   T
  0.0493550880283697  0.1880464074372194  0.1422181593567360   T   T   T
  1.0370183263891295  0.8036899463817205  0.9139843299241652   T   T   T
  0.2669436589763384  0.4791414108979059  0.8446191045511133   T   T   T
  0.7405903624715623  0.4297713518751119  0.0997753915569138   T   T   T
