Sr Co O 
 1.0000000000000000
     4.7193455414957697   -2.8087792574239643   -0.7828181547011128
    -4.7075623483938864   -2.7904884625118882    0.7354362228641202
     3.2449857258531725   -0.1871816540646568  -18.9692961059778646
 Sr  Co  O  
   8   8  20
Selective dynamics
Direct
  0.2361875275121558  0.7127223194273775  0.5846490332499991   T   T   T
  0.7028904840709750  0.2933421306139596  0.9423536497176686   T   T   T
  0.0946468978259521  0.8546189069233757  0.8115951526686381   T   T   T
  0.8486535169090464  0.1452969613583061  0.6994844160360112   T   T   T
  0.2986768608294191  0.7015897789194341  0.0676237755805244   T   T   T
  0.6692125504258153  0.3143761478768580  0.4320929266375101   T   T   T
  0.1657269499563484  0.8729546525001926  0.2888061191271822   T   T   T
  0.8970657195763461  0.1025574673838032  0.1731677876238672   T   T   T
  0.0023860252398826 -0.0083819659164415 -0.0028469623357601   T   T   T
  0.4545658112201834  0.4549635403939692  0.7455438605943441   T   T   T
  0.3899723912758430  0.5709079339655123  0.8853036200485032   T   T   T
  0.5445634723966148  0.3785722843385381  0.6121907538764235   T   T   T
 -0.0408726132617928  0.0081175352992277  0.4988181841654919   T   T   T
  0.5418066414760565  0.5314155345786183  0.2554945213491476   T   T   T
  0.4221167853777814  0.6857752576353663  0.3974799503589128   T   T   T
  0.6032236891597990  0.4072569806682592  0.1189675725558379   T   T   T
  0.6018900019693929  0.3919978676538761  0.8114722812079179   T   T   T
  0.3213421106389628  0.5541854252467144  0.6824086718904255   T   T   T
  0.1201358665931461  0.3608977073028246  0.8146817602130636   T   T   T
  0.8031624456320333  0.6280471355058398  0.6821180771438294   T   T   T
  0.3847047673063825  0.1001063698750721  0.6837689434815826   T   T   T
  0.2490223172222616  0.8334747234206165  0.9190141982405777   T   T   T
  0.8252886631420780  0.2933419268518282  0.5427284697873523   T   T   T
  0.1876605516629934  0.3144641663428421  0.9509582759901554   T   T   T
  0.2641529808788046  0.1830595857763894  0.5506521824186269   T   T   T
  0.7113706940815192  0.8061142494857657  0.9247681918311621   T   T   T
  0.4382072236049624  0.6426159232971766  0.1874589676372969   T   T   T
  0.4616927913742110  0.3652001234385977  0.3370893305323724   T   T   T
  0.8829475737840887  0.5979335943838544  0.1832112371919841   T   T   T
  0.3927359379448265  0.1779330666780867  0.1955792117588023   T   T   T
  0.6734319443545835  0.8951450570834485  0.3149153848368139   T   T   T
  0.1233732691508170  0.7846411411741668  0.4229340993924058   T   T   T
  0.7572507132534275  0.1575701755442890  0.0669517794762453   T   T   T
  0.8337103215541448  0.6861607172971361  0.0519824441594682   T   T   T
  0.3101005911206901  0.2230718843197224  0.0667297806816960   T   T   T
  0.6039970050962961  0.7489540457024407  0.4752026865604095   T   T   T
