Sr Co O 
 1.0000000000000000
    -4.7603984518165383    2.7131152003782506    0.7468431773296639
    -4.8021602959213672   -8.1849935341830946    0.8832674376256876
     3.1418184415735633    2.6391529436861783    8.7460942674889992
 Sr  Co  O  
   8   8  20
Selective dynamics
Direct
 -0.0216930360451168  0.2701754366333937  0.8647547333138357   T   T   T
  1.0269638783299515  0.7331296157645887  0.1352243209469144   T   T   T
  0.0247300950998853  0.1340841072239508  0.3739399206564378   T   T   T
  0.9863413458973836  0.8721938254701024  0.6347837356929373   T   T   T
  0.4888580580058309  0.7972913548225889  0.8496548780652927   T   T   T
  0.5124257305311414  0.2013980312552504  0.1512018897907121   T   T   T
  0.5019294737609525  0.6288169231720981  0.3867239475355067   T   T   T
  0.5153230602764500  0.3691950521953205  0.5966435361878942   T   T   T
 -0.0016048985158100  0.0028258381372269  0.0013252772886258   T   T   T
  0.4864226285626276  0.0070511181392248  0.5053562949373244   T   T   T
  0.5087589310227455  0.9162480275777796  0.2292643417323326   T   T   T
  0.4804424057064649  0.0865347832935816  0.7648600953608091   T   T   T
  0.5307923986162744  0.5254758025515276 -0.0018144791878896   T   T   T
  0.0095621848468092  0.5091295271909253  0.4950624324379033   T   T   T
 -0.0227429405516521  0.4072012084541097  0.2287715525030868   T   T   T
  0.9928120233874365  0.5897440749079825  0.7813860839836337   T   T   T
  0.2729695282261727  0.8854959023868854  0.3661500558164601   T   T   T
  0.7320562249723619  0.1202223909986994  0.6353778812115151   T   T   T
  0.2657826572556284  0.1650361433697134  0.6486804325636685   T   T   T
  0.5035984244212574  0.8723941531745339  0.6087191377887397   T   T   T
  0.5101716270176836  0.1095020930256430  0.3718529248642332   T   T   T
  0.7993704815187768  0.9722411907764891  0.1601480675514886   T   T   T
  0.2084609179601406  0.0300086581534502  0.8494647197899791   T   T   T
  0.5497532220797563  0.7096621466005566  0.1496023473100969   T   T   T
  0.7024436125685238  0.0656962753346357  0.9028256700456362   T   T   T
  0.2815809476338568  0.9452064262529103  0.0906920238877988   T   T   T
  0.7781276910091849  0.3709536653079368  0.3891624974752055   T   T   T
  0.2349698285695520  0.6006977175997136  0.6453414337100108   T   T   T
  0.2454493776171537  0.3945430266217585  0.3669652036223679   T   T   T
  0.7808684485519034  0.6114716428607210  0.6256144132530514   T   T   T
  0.9764605806511205  0.6122820395885906  0.3345319530872557   T   T   T
  0.7366798790974218  0.4924390196659008  0.8362600553046444   T   T   T
  0.0540613944530228  0.2174799579387565  0.1157477667624829   T   T   T
  0.9490795552155635  0.7993672092124614  0.8818961743679509   T   T   T
  0.2204256930568921  0.5281015465400816  0.9158354963748824   T   T   T
  0.7013681962330683  0.4177040129663166  0.0999927649599707   T   T   T
