Sr Co O 
 1.0000000000000000
     0.0864551376266811    5.5615942657186634   -0.0012620510543503
    -9.3946683562379967   -0.1304075593411586    1.6382180644092208
    -1.6905519338720603   -0.0024413390650296    9.6522790715989402
 Sr  Co  O  
   8   8  21
Selective dynamics
Direct
 -0.0105719912470542  0.7332226584242425  0.8667705964843269   T   T   T
  0.0140254537588183  0.2761678065884092  0.1512235641318853   T   T   T
 -0.0187417613490958  0.8765181395517283  0.3669681107888159   T   T   T
  0.0208278666902653  0.1129408154317814  0.6180005860740783   T   T   T
  0.5010473222691556  0.1957794612122555  0.8689927151825606   T   T   T
  0.4879789097612753  0.7867080350530443  0.1133284621437135   T   T   T
  0.5184043629953832  0.3755044019261934  0.3658298295631859   T   T   T
  0.4770729335127465  0.6403806309915331  0.6414870673548938   T   T   T
 -0.0029785875683405 -0.0085334180166510  0.0061988688106423   T   T   T
  0.0134844794109477  0.5071344184553064  0.4936506032455078   T   T   T
  0.0199021834271241  0.5811242668935837  0.2182869244453083   T   T   T
  0.0123707733687803  0.4007278585633941  0.8065521753785022   T   T   T
  0.5065431662655772  0.5019818925895624 -0.0076064549942179   T   T   T
  0.5002166620345445  0.0124181955949863  0.4966948106280622   T   T   T
  0.4933562118506756  0.0935621400173848  0.2157410438517250   T   T   T
  0.5102707497410917  0.9205564636253536  0.7606709418720009   T   T   T
 -0.0034427778851908  0.3824138270579291  0.3770950285068377   T   T   T
  0.2229483448305978  0.6498726884920056  0.3595883102146142   T   T   T
  0.1997900873559228  0.3948456066110336  0.6457579599971429   T   T   T
  0.7405591698265112  0.6048390101198932  0.4566606950789606   T   T   T
 -0.0388637849356173  0.7763108656550979  0.1090270502357332   T   T   T
  0.0103621259231531  0.2040111436732422  0.9125406453376352   T   T   T
  0.3047628495010690  0.5238867640902708  0.1416465715954102   T   T   T
  0.7196742236411436  0.4691019600621842  0.8327751366463927   T   T   T
  0.2281543469803174  0.5132265083728175  0.8678261246039237   T   T   T
  0.7779060008254272  0.5060756471599767  0.1210524351326146   T   T   T
  0.5088048777322776  0.1317403705354985  0.6234430149424769   T   T   T
  0.7228012362511739  0.1153519103365166  0.3539336873913581   T   T   T
  0.2698259277272816  0.8808589276522756  0.6257789565114386   T   T   T
  0.7312078367224112  0.8865080914375997  0.6160124333418417   T   T   T
  0.2705571236882202  0.1103952917951276  0.3628460668242555   T   T   T
  0.4763825984327294  0.2890743150895846  0.0823427777695784   T   T   T
  0.5348430506300395  0.7172628142950928  0.8859868328143409   T   T   T
  0.7325013716439206  0.0066062244041991  0.1403108449448711   T   T   T
  0.2608792570584439  0.9613748487034331  0.8763003911644690   T   T   T
  0.7699936626963878  0.9837957924151052  0.8551667711136475   T   T   T
  0.2431437367140468  0.0002535471383185  0.1478182325102282   T   T   T
