Sr Co O 
 1.0000000000000000
    -4.7376079824277513    2.7328931261428786    0.7691391635525683
    -4.9142823687000687   -8.5041970602183792    0.5933584019683801
     3.2943181177473373    3.0572169369882722    8.6505079892647618
 Sr  Co  O  
   8   8  21
Selective dynamics
Direct
  0.0106269450357987  0.3157712334180643  0.8816138010108203   T   T   T
  1.0106348364275810  0.7145914432009380  0.1656343356736679   T   T   T
  0.0136148601578969  0.1488790623428578  0.3607794677559278   T   T   T
  0.9960649857207921  0.8442456775349227  0.6399857798101966   T   T   T
  0.4864576059325593  0.7685315691112314  0.8655810072872963   T   T   T
  0.5319133017149819  0.2403102874549375  0.1224268470498862   T   T   T
  0.5226822560756772  0.6036245455364917  0.3915325219426039   T   T   T
  0.5077683528394492  0.3795378408596360  0.6177517898162636   T   T   T
  0.0170287578582134  0.0063926825733163 -0.0058434611517840   T   T   T
  0.4242561730922516 -0.0518618844359037  0.4577077857200907   T   T   T
  0.5180811519559632  0.9576852016196025  0.2146853899879138   T   T   T
  0.5149045350192881  0.0687821304677384  0.7788385573563368   T   T   T
  0.5026888592970286  0.4943648485616896 -0.0029755696589749   T   T   T
  0.0127699422294339  0.4934325270186464  0.5063346720924861   T   T   T
  0.0303265147858484  0.4137974863646633  0.2343601486597461   T   T   T
  0.9909857667358075  0.5907450888658992  0.7806746771790165   T   T   T
  0.1035287789690365  0.9383270030792655  0.4417097779990674   T   T   T
  0.5595641672788757  0.7968435277882959  0.2717299279626385   T   T   T
  0.5400852144984397  0.8883837982442916  0.6044923180466847   T   T   T
  0.5258410878617327  0.1124115788508191  0.4189586655839877   T   T   T
  0.7501042742593959  1.0191423564967812  0.1265075986712181   T   T   T
  0.2813367528259029 -0.0055749319473554  0.8630492727987714   T   T   T
  0.4723108052831657  0.2675225195385121  0.8282092895465853   T   T   T
  0.8211157591192317  0.0683603687750500  0.8566042244950340   T   T   T
  0.2227917630271123  0.9447655794613129  0.1275754047669307   T   T   T
  0.7925700453650624  0.3737125752525746  0.3582310587940572   T   T   T
  0.2315574645315609  0.6157708611912270  0.6490424317424499   T   T   T
  0.2550940764481420  0.3809133497298915  0.3748123019107560   T   T   T
  0.7671779744108630  0.6048466369476138  0.6316008482370845   T   T   T
  0.0116580596622316  0.3805000523961944  0.6319903575423659   T   T   T
  1.0143659617355341  0.6091553141080199  0.3876936125879381   T   T   T
  0.2894501502999604  0.4786950207798125  0.1383198334440460   T   T   T
  0.7231285455906756  0.5451214302932531  0.8839839686681036   T   T   T
  0.0787988823268736  0.2159474184373879  0.1006773363170242   T   T   T
  0.9416231116493231  0.7984694672983205  0.8880825366002408   T   T   T
  0.2333715557955551  0.5732843532483309  0.9195374936175125   T   T   T
  0.7760707158477450  0.4589223146404826  0.1148037114838034   T   T   T
