Sr Co O 
 1.0000000000000000
    -0.0025474989592964    5.5437111781071469   -0.0159481557753854
     9.7261601264992805   -0.0259367907281364   -1.2946834597982759
    -3.5382446660399793   -2.7141021992234968   -8.5843137596969754
 Sr  Co  O  
   8   8  20
Selective dynamics
Direct
  0.5991775316834552  0.8303399360896783  0.1608538600718891   T   T   T
  0.9301325315526772  0.6430395294587977  0.8717192825666465   T   T   T
  0.8072340628071113  0.9295708302063946  0.6213522392163207   T   T   T
  0.6957827574688726  0.5834506685184377  0.3843230394900352   T   T   T
  0.0507825143678743  0.3719561822275710  0.0995662228302882   T   T   T
  0.4210275931954425  0.1748443736077007  0.8202487134339295   T   T   T
  0.3116503002821640  0.4709219121377866  0.6286504509376689   T   T   T
  0.2007609736177351  0.0392579158164549  0.3970555539664400   T   T   T
  0.0775648944338964  0.0213376062079000  0.0163589095851184   T   T   T
  0.7476839637136956  0.2340854699066185  0.4666757471215968   T   T   T
  0.8770675567556246  0.2951327771976448  0.7386238879675152   T   T   T
  0.5345192198696005  0.1636284642927494  0.1577444935821612   T   T   T
  0.5026094246678687  0.5033646011247402 -0.0062184357314279   T   T   T
  0.2547264121199129  0.7535392293045000  0.5242849326381669   T   T   T
  0.3939297587725472  0.8217832689791970  0.8010556471793194   T   T   T
  0.1354978237690243  0.6940005860286502  0.2508820211122253   T   T   T
  0.7426916954469019  0.4184823103792698  0.5420289426263520   T   T   T
  0.0691402096369272  0.2100460468146654  0.6039752454742566   T   T   T
  0.7305714325541433  0.0837181394230436  0.3060814435670301   T   T   T
  0.5970017326517373  0.1679193926382644  0.5992925518388809   T   T   T
  0.9316932520909660  0.1195572884802510  0.8798505589314168   T   T   T
  0.5870442485782921  0.3202798602058269  0.1031542980906586   T   T   T
  0.1650800279618253  0.4127865524374515  0.8619662445687527   T   T   T
  0.2196341918366888  0.1698121579552034  0.2036794206239924   T   T   T
  0.6644356292114588  0.4064792115406133  0.8404407539830043   T   T   T
  0.3183284240019080  0.9348954201293459  0.6620353437392340   T   T   T
  0.1947617177258760  0.5654282697261845  0.3976174583097729   T   T   T
  0.5569901071804357  0.7165256561179371  0.6584987480583997   T   T   T
  0.9653091772488491  0.8055697115899928  0.3889919305888599   T   T   T
  0.4271001691749409  0.8080259370654310  0.3931124186832676   T   T   T
  0.0738967487463878  0.7100520845686582  0.6501564857282401   T   T   T
  0.4437877531467211  0.6856821256785408  0.9014895665602003   T   T   T
  0.0230814307332842  0.8719463420385213  0.0831913629986151   T   T   T
  0.8325917114269606  0.5995974356428726  0.1201193215450823   T   T   T
  0.3466267370600610  0.5951742368529321  0.1430542490886916   T   T   T
  0.4147359808871552  0.9894182011290165  0.9773871574450762   T   T   T
