Sr Co O 
 1.0000000000000000
    -4.7469156133937123    2.7187665843783400    0.7645585809900161
    -4.9701936059215504   -8.5209683320655500    0.5637087163682400
     3.3645583804954993    3.0779454180812391    8.7542329808387134
 Sr  Co  O  
   8   8  20
Selective dynamics
Direct
 -0.0005134437677059  0.3138004145635910  0.8801814924380161   T   T   T
  1.0131808196039029  0.6964157817599739  0.1325904286454191   T   T   T
  0.0107029371348254  0.1633002360234549  0.3572142215043334   T   T   T
  0.9798955163030324  0.8364249013090090  0.6469941935027208   T   T   T
  0.5021918000080634  0.7709803575909454  0.8661391323265836   T   T   T
  0.4952946643006218  0.2398318632737332  0.1289409052611950   T   T   T
  0.4838181287252492  0.6072546565437367  0.3883589747080866   T   T   T
  0.5050541985682971  0.3890302603666082  0.6215990123109726   T   T   T
 -0.0024007543148020  0.0066710425431489 -0.0025372352611941   T   T   T
  0.4580157764028896 -0.0275081901870302  0.4876103404261761   T   T   T
  0.4994461152076726  0.9550713110604675  0.2288472115014821   T   T   T
  0.4871379137294771  0.0705383921729429  0.7825462781666760   T   T   T
  0.5055150322417141  0.4834396681244037 -0.0124033212315364   T   T   T
 -0.0041526023505512  0.4982024415366155  0.5039978043390340   T   T   T
 -0.0125469816182562  0.4192661207006111  0.2340858999523949   T   T   T
  1.0063519198417346  0.5867799606602756  0.7747579133778084   T   T   T
  0.3784167616802804  0.8165595776797279  0.2991499795701719   T   T   T
  0.5163873887627167  0.8812874812715706  0.6125216772695758   T   T   T
  0.4689743730128473  0.1247303782539241  0.4268513203105021   T   T   T
  0.8071678963599916  0.9405969835676948  0.1758359332771432   T   T   T
  0.1695715830148695  0.0623762637981967  0.8231418757832595   T   T   T
  0.5360880713345184  0.2675189637891085  0.8239352143301722   T   T   T
  0.6969908891350931  0.0083853428424219  0.8948586251193067   T   T   T
  0.2934946976103079  1.0066107699556623  0.1122575821289080   T   T   T
  0.7602991453381780  0.3838259940826615  0.3662130186319273   T   T   T
  0.2327644037539006  0.6121513925715815  0.6384140596498331   T   T   T
  0.2251400612204842  0.3830118863604250  0.3623298171608651   T   T   T
  0.7665386427956562  0.6136829642417091  0.6431412294628953   T   T   T
  0.0019503564095474  0.3812910405763885  0.6256510435361158   T   T   T
  0.9892988818367530  0.6176992865510856  0.3886621615980599   T   T   T
  0.2447486711646064  0.4543370092312205  0.1149968575307278   T   T   T
  0.7550114242684853  0.5633540878797516  0.9004221459686470   T   T   T
 -0.0401742859260355  0.2140842079256750  0.1067033173434646   T   T   T
  1.0339009459484312  0.7986810356999103  0.8909552193209609   T   T   T
  0.2654715613826467  0.5532556386069257  0.8960930522429953   T   T   T
  0.7309680435686531  0.4790604275882140  0.1289423547774056   T   T   T
