Sr Co O 
 1.0000000000000000
    -0.0609372549884058    5.5794032358634986    0.0698189222911223
     9.2657353961411406   -0.0761021026601752   -1.5333331290287240
    -2.9699228369288098   -2.8642482609739384   -8.8116317342309269
 Sr  Co  O  
   8   8  21
Selective dynamics
Direct
  0.5533236207162900  0.8471475752473255  0.1283024659375910   T   T   T
  0.9314747437282228  0.6508109988241793  0.8566268798450175   T   T   T
  0.8358211078996300  0.9358051340655793  0.6324346193068151   T   T   T
  0.6991476061984310  0.5752281369532803  0.3907357699930764   T   T   T
  0.0587845664144380  0.3637753145561680  0.1466250503099927   T   T   T
  0.4490771400970093  0.1435281245138057  0.8792146373273332   T   T   T
  0.3156259616882192  0.4337264199316167  0.6087436702193835   T   T   T
  0.1828057658677525  0.0703021298985509  0.3713957781420988   T   T   T
  0.0045119710238557  0.0017704790425349  0.0042080111998122   T   T   T
  0.7554603324104814  0.2545120844951493  0.5097692286764303   T   T   T
  0.8755798519104698  0.2849087893855212  0.7726491490341576   T   T   T
  0.6028314421728258  0.2135573725978770  0.2299880225769449   T   T   T
  0.5107020312628234  0.5061738399231850  0.0079786912573593   T   T   T
  0.2614235738069259  0.7501117530090762  0.4897730303515489   T   T   T
  0.4005948723308456  0.7888440452191464  0.7687746046962752   T   T   T
  0.1070988294891698  0.7107669141699388  0.2268960350913212   T   T   T
  0.8346011452633783  0.4332259210543831  0.6549435751363069   T   T   T
  0.0562319598446924  0.1918647862886235  0.6392081450843288   T   T   T
  0.4600739491963282  0.3021596391019717  0.3750143940618370   T   T   T
  0.9121171719245207  0.3047333315714944  0.3770282861347791   T   T   T
  0.5722354078771613  0.1621998397717490  0.6082893353847819   T   T   T
  1.0000868854692360  0.1627605437529735  0.9043536076280317   T   T   T
  0.4844954020833820  0.3521019414874689  0.0967216751025505   T   T   T
  0.3236755002928449  0.0788840430088710  0.1539933664826462   T   T   T
  0.7941258088386463  0.1061736290351112  0.1366694447275466   T   T   T
  0.7071816123505040  0.3842157137562599  0.8904769478080705   T   T   T
  0.2037253666702244  0.5752562358811716  0.3653636666668745   T   T   T
  0.5560672216267081  0.7077676520962335  0.6229312683313948   T   T   T
  0.9721918631564469  0.8238325503436351  0.3768128321651920   T   T   T
  0.4184958202483812  0.8179764143260990  0.3598208183860797   T   T   T
  0.0986589168611749  0.7054514796811323  0.6197287077674090   T   T   T
  0.4291097636575992  0.6130913829977578  0.8608701723096929   T   T   T
 -0.0009066059287265  0.8411428819141602  0.0962037605826529   T   T   T
  0.6849954358802416  0.9156071131387822  0.8504036965974191   T   T   T
  0.7954411463249352  0.6035944130050301  0.1542283732711071   T   T   T
  0.2523229098426552  0.6016799171263308  0.0909672381939437   T   T   T
  0.2098099556332189  0.8953114336036757  0.8658551832449307   T   T   T
