Sr Co O 
 1.0000000000000000
     4.9147078212599942   -2.7761591439481035   -0.5318686759360167
     4.8503091127415345    8.2147099985883703   -0.5792671223464326
    -1.1195996921459344   -0.0469735207627011    9.4595775804846518
 Sr  Co  O  
   8   8  20
Selective dynamics
Direct
  0.4684372818737437  0.1529637634473351  0.8976307308929153   T   T   T
  0.0941395072219358  0.3821185475199346  0.1613795616190935   T   T   T
  0.1716189793037935  0.0784401197138939  0.3612654012229259   T   T   T
  0.2922819561054965  0.4307714095388894  0.5995140782237676   T   T   T
  0.9684788197230146  0.6529342813324124  0.8976299385018343   T   T   T
  0.5941196811542568  0.8821206529801068  0.1613644908624211   T   T   T
  0.6716337221114042  0.5784374409194687  0.3612634477527654   T   T   T
  0.7922976384087356  0.9307606703749269  0.5995087858314422   T   T   T
  0.0318502937242242  0.0252063212112818  0.0246733047984020   T   T   T
  0.7462857598760863  0.2564091753513040  0.4998149697660275   T   T   T
  0.6153654109809531  0.2218975164241768  0.2385339487712114   T   T   T
  0.9352172895781877  0.2527343245103090  0.7715963680511111   T   T   T
  0.5318708535281297  0.5252036244757926  0.0246743254247014   T   T   T
  0.2463060146993092  0.7564011691381728  0.4998021682628863   T   T   T
  0.1153720592524684  0.7218980963100059  0.2385243790481588   T   T   T
  0.4352331026550789  0.7527299469174674  0.7715923054830587   T   T   T
  0.8986409504588078  0.3106202127626287  0.3570818801836484   T   T   T
  0.6128159488938524  0.2387972138681002  0.6701182945303954   T   T   T
  0.4677385661765347  0.3365268313542570  0.3867140899567125   T   T   T
  0.0507416032430138  0.2000092815486577  0.5938262101816660   T   T   T
  0.6406371610042358  0.0826677621424930  0.3734470163748104   T   T   T
  0.3102574679503030  0.1404686515287691  0.1294524268956325   T   T   T
  0.1027815207502251  0.3956310748428283  0.8750762379026202   T   T   T
  0.6078322470630180  0.3583386653351833  0.0972603831067391   T   T   T
  1.0169484769483155  0.0748021942164955  0.8417028400499206   T   T   T
  0.7951117507207764  0.1038920775410983  0.1203258021543595   T   T   T
  0.3986455678927715  0.8106124007795875  0.3570726731572447   T   T   T
  0.9677548178033114  0.8365244656215770  0.3867131508979543   T   T   T
  0.5507598988891741  0.7000112926549614  0.5938229235022389   T   T   T
  0.1128205615663008  0.7387452820158623  0.6701006308401897   T   T   T
  0.1406512673891973  0.5826655682510420  0.3734342605656845   T   T   T
  0.8102640437302892  0.6404700821602159  0.1294508795578748   T   T   T
  0.6026634340910987  0.8956621526252510  0.8750749501396857   T   T   T
  0.1078102575474385  0.8583322997924472  0.0972412076219107   T   T   T
  0.5170097762434508  0.5748056547443308  0.8417077374246716   T   T   T
  0.2951060051019588  0.6038898431684131  0.1203080710984083   T   T   T
