Sr Co O 
 1.0000000000000000
    -0.0000000000000000    5.5283878118443344   -0.0000000000000000
    -9.2468434030930542    0.0000000000000001    1.5718193003953511
    -1.5871338413042044   -0.0000000000000000    9.5144029555119420
 Sr  Co  O  
   8   8  20
Selective dynamics
Direct
  0.0000000000000000  0.7284456468616998  0.8746210883221197   T   T   T
  0.0000000000000000  0.2896702222615931  0.1360205291958274   T   T   T
  0.0000000000000000  0.8874466396808135  0.3621104894202683   T   T   T
 -0.0000000000000000  0.0996107943291375  0.6151131584554893   T   T   T
  0.4999999999999999  0.2108769134097215  0.8476058535239418   T   T   T
  0.5000000000000000  0.7771686714761858  0.1459832716914991   T   T   T
  0.4999999999999999  0.3660796934076033  0.3973424814258821   T   T   T
  0.5000000000000000  0.6367325340347271  0.6062463142145215   T   T   T
  0.0000000000000000  0.0005967152802775 -0.0042604169876417   T   T   T
 -0.0000000000000000  0.4941609661941158  0.5135134523230444   T   T   T
 -0.0000000000000000  0.5833452311177042  0.2402897660026670   T   T   T
  0.0000000000000000  0.4115321367987363  0.7783214435924684   T   T   T
  0.4999999999999999  0.5111174017847105  0.0005735670870604   T   T   T
  0.4999999999999999 -0.0033777463173409  0.4881443963883514   T   T   T
  0.4999999999999999  0.0897495047315914  0.2200273980897199   T   T   T
  0.5000000000000000  0.9159267083897015  0.7588029220786535   T   T   T
  0.2282119539221806  0.6045892017692276  0.3888313169837246   T   T   T
  0.7750302726941594  0.3807835563563136  0.6422475650238517   T   T   T
  0.2249697273058415  0.3807835563563136  0.6422475650238517   T   T   T
  0.7717880460778178  0.6045892017692276  0.3888313169837246   T   T   T
  0.0000000000000000  0.7951461114792017  0.1289298828941847   T   T   T
  0.2532990996513565  0.5056728465994761  0.1582197314021925   T   T   T
  0.7573600775773518  0.4420353802387807  0.8905975341078697   T   T   T
  0.2426399224226532  0.4420353802387807  0.8905975341078697   T   T   T
  0.7467009003486457  0.5056728465994761  0.1582197314021925   T   T   T
  0.5000000000000000  0.8772429728842014  0.3635595715585483   T   T   T
  0.4999999999999999  0.1111615828254316  0.6136392024073170   T   T   T
  0.7306922650067234  0.1284920370798121  0.3574743791902133   T   T   T
  0.2684918173007232  0.8684646374363817  0.6235911784376064   T   T   T
  0.7315081826992763  0.8684646374363817  0.6235911784376064   T   T   T
  0.2693077349932775  0.1284920370798121  0.3574743791902133   T   T   T
  0.5000000000000000  0.7228488421121535  0.8991528146096142   T   T   T
  0.7495520330134060  0.0837546393787934  0.0901501869248231   T   T   T
  0.2353250682449660  0.9834671011034886  0.8560193363967253   T   T   T
  0.7646749317550368  0.9834671011034886  0.8560193363967253   T   T   T
  0.2504479669865929  0.0837546393787935  0.0901501869248231   T   T   T
