Sr Co O 
 1.0000000000000000
     0.0637598475206176    5.5205331066990615    0.0936678726510149
     9.5538634571254590    0.1140877560912962   -1.3576882811812581
    -3.4038316555671599   -2.9659361265467008   -9.0062267687018469
 Sr  Co  O  
   8   8  20
Selective dynamics
Direct
  0.5552536725535343  0.8435414149291680  0.1542852799310223   T   T   T
  0.9466102675135728  0.6402748589277006  0.9244985356968748   T   T   T
  0.8033196320997176  0.9606021134092791  0.5831731219071301   T   T   T
  0.6744098609971085  0.5691145005903864  0.3485517608942844   T   T   T
  0.0682541495600637  0.3656619742416856  0.1592270382968154   T   T   T
  0.4454608801462671  0.1628148050343061  0.8275136122268909   T   T   T
  0.2959551835381368  0.4212229000736492  0.5935943193572993   T   T   T
  0.1805235787469683  0.0544233653196770  0.3628368315688033   T   T   T
  0.0061143202513504  0.0005717305687318 -0.0218869551693699   T   T   T
  0.7507726681234906  0.2508428175802208  0.4809737626800864   T   T   T
  0.8950625997300169  0.2956009133905472  0.7618716869069857   T   T   T
  0.5783130861511298  0.2015130149918794  0.2224509735223557   T   T   T
  0.4924421573193402  0.4772452469619991  0.0014852224268032   T   T   T
  0.2726235687126195  0.7494935236289508  0.5163165950951156   T   T   T
  0.3798615756205380  0.8378971884966164  0.7998538116361708   T   T   T
  0.1093566986448601  0.7063093030227765  0.2531615077310269   T   T   T
  0.6544667113585618  0.0634001339284339  0.3372780889252610   T   T   T
  0.0505893637591130  0.2061869666217442  0.6117241654426024   T   T   T
  0.4752314963265854  0.3405811331109264  0.3835990640203272   T   T   T
  0.9164687176974141  0.2893973884585885  0.3504356796478083   T   T   T
  0.5903951525303582  0.2094391002392574  0.6096010910446027   T   T   T
  0.9555649654839832  0.1198022376795707  0.8425110295853758   T   T   T
  0.5730631896755527  0.3069410863090004  0.0889153434593645   T   T   T
  0.1816368186956878  0.4233162534697483  0.8463186296417499   T   T   T
  0.2363428801187312  0.1187108505220116  0.1362660805009645   T   T   T
  0.6799186982005315  0.4096432146921231  0.8494265236698108   T   T   T
  0.4075966576349379  0.9172082727498302  0.6527780997748223   T   T   T
  0.1755150402360737  0.5751109195275977  0.3817715790162242   T   T   T
  0.9501281054098533  0.8121455112258846  0.3865740432828366   T   T   T
  0.4266391579867347  0.7989643536007717  0.3878526663171862   T   T   T
  0.1930458102437664  0.6855997782878742  0.6605514210413624   T   T   T
  0.0477742966588979  0.8469333446800009  0.1515677867217118   T   T   T
  0.6568568193930302  0.9396463099977427  0.9385126037800926   T   T   T
  0.7829457021554506  0.6019612531676191  0.1256537023938308   T   T   T
  0.2952633888691165  0.5887524932134808  0.1314309131128281   T   T   T
  0.1965735399468001  0.8404797948980330  0.9180246145185366   T   T   T
