Sr Co O 
 1.0000000000000000
     4.7936315010124302   -2.7735632216420516   -0.7954299843105592
     4.6595559857479776    8.1760364222449571   -0.8341897046844979
    -1.7098103640337654   -0.0145655981347663    9.6875407102674576
 Sr  Co  O  
   8   8  20
Selective dynamics
Direct
  0.4492174264709916  0.1639497543714159  0.8491431965286383   T   T   T
  0.0806667232979823  0.3833602920047306  0.1482041423812714   T   T   T
  0.1862236445483611  0.0548852172865459  0.3867190636551673   T   T   T
  0.3111561395413817  0.4353606359744085  0.6041826819897953   T   T   T
  0.9355931788451081  0.6285774360855526  0.8541647653336641   T   T   T
  0.5433874137838324  0.8227253818315599  0.1460129883486455   T   T   T
  0.6934938240046745  0.5793530389429233  0.4027476268739344   T   T   T
  0.8008439912489220  0.9255152385487202  0.6184349825955070   T   T   T
 -0.0272375019735646 -0.0240275648306286  0.0021872536329946   T   T   T
  0.7425413832003258  0.2313436209691122  0.4914012609843403   T   T   T
  0.6595704197225460  0.2273425308682742  0.2060604645904526   T   T   T
  0.9003853223440749  0.3034488159408216  0.7502196947379527   T   T   T
  0.4957627284468656  0.4996803113413255 -0.0004403499400681   T   T   T
  0.2488850677747486  0.7487643672038767  0.5131874146853648   T   T   T
  0.0920658301204414  0.7074703844283440  0.2477733021264397   T   T   T
  0.4058862897065780  0.8037664257353954  0.7935246721494705   T   T   T
  0.9306467229403436  0.2686768649190654  0.3706898404182272   T   T   T
  0.5678094877121690  0.1733204172975108  0.6125602517668823   T   T   T
  0.4602112616624391  0.2309146645834735  0.3286226037423722   T   T   T
  0.0341928712186589  0.1652070886519859  0.6254269887865727   T   T   T
  0.7824691382379916  0.4332491165060006  0.6025964830500454   T   T   T
  0.2197252431844142  0.4080519409988482  0.8320814358419021   T   T   T
  0.4621839629204879  0.3269591325078295  0.0794269968609406   T   T   T
  0.7630138402078671  0.3772897663306102  0.8882013117791371   T   T   T
  0.8474978092727121  0.1431156055260263  0.0890662347019920   T   T   T
  0.4099928086597672  0.8158343077152536  0.3831895887776863   T   T   T
  0.1002565778221518  0.7230950129429520  0.6588838128803505   T   T   T
  0.9518756500406738  0.8147257337215252  0.3989952478107428   T   T   T
  0.5426736036045687  0.7089299384718100  0.6408988266659654   T   T   T
  0.1939080617592736  0.5637609425030106  0.3774265266259459   T   T   T
  0.7738988931421179  0.5897872934017967  0.1644465500705454   T   T   T
  0.6816909739699668  0.9346427606085609  0.8428403959132154   T   T   T
  0.0159827753523085  0.8722034762967986  0.1504290814916618   T   T   T
  0.5164421878757264  0.6599176216480440  0.9093148090692245   T   T   T
  0.2340939814980461  0.9342560007371759  0.9166927148270663   T   T   T
  0.2399921650586306  0.6155463321485670  0.1066870798899116   T   T   T
