Sr Co O 
 1.0000000000000000
     0.0486720382421205    5.5786106887437548   -0.0779168411109813
     9.5918298566669566    0.0912504975101497   -1.5639386729937224
    -3.2188484283908152   -2.7027534731907505   -8.6000766906204777
 Sr  Co  O  
   8   8  20
Selective dynamics
Direct
  0.6154064715710588  0.8640211550677934  0.1640542475812201   T   T   T
  0.8979849266669203  0.6793314904644997  0.8538540535832173   T   T   T
  0.7943715753432374  0.9364340391263504  0.5879814007386279   T   T   T
  0.7080392287459051  0.5654665230909305  0.4174322976218121   T   T   T
  0.0955276141732505  0.3551515287588217  0.1674727259262819   T   T   T
  0.4184843126638083  0.1204346857828053  0.8401641480641414   T   T   T
  0.2803804401575872  0.4323151155630710  0.5858232109310948   T   T   T
  0.2081869328840110  0.0679556213093244  0.4018885462591549   T   T   T
  0.0641375638554953  0.0025648628601430  0.0292923350942624   T   T   T
  0.7481126356498271  0.2539744799559397  0.5126226258486221   T   T   T
  0.8349861924840101  0.3118116503580631  0.7784527411848151   T   T   T
  0.6439404737210793  0.1999783159868321  0.2376947102817578   T   T   T
  0.5558907733553087  0.5005487933606242  0.0285916343369092   T   T   T
  0.2501938226865468  0.7475824844135424  0.4905647184815277   T   T   T
  0.3313303714327510  0.8062241399270763  0.7573662280510578   T   T   T
  0.1360070916901648  0.6958440516081316  0.2173235983368166   T   T   T
  0.8291060611321972  0.4390638759346253  0.6439169908780689   T   T   T
  0.6779137757668988  0.0726801620092191  0.3861117383428585   T   T   T
  0.0212986126397373  0.1940376841265215  0.6640099074692092   T   T   T
  0.4805713762008518  0.3186245780494124  0.3671639778833898   T   T   T
  0.9358951206977454  0.2958413142311903  0.3817836185174198   T   T   T
  0.5362672807897967  0.2134497703267952  0.6266304471098137   T   T   T
  0.3416296168949843  0.1449961241993672  0.0917127371314150   T   T   T
  0.8556764075609008  0.1054843887112740  0.1266988221281310   T   T   T
  0.7038034491019542  0.3477595698832582  0.9422089050305111   T   T   T
  0.3334018623396622  0.9291208948414275  0.6069499331175591   T   T   T
  0.1531490972575200  0.5720931586147614  0.3598461182356988   T   T   T
  0.5069789783602887  0.6780640719891804  0.6375077359695200   T   T   T
  0.9937055690005454  0.8174264542708529  0.3548348934860038   T   T   T
  0.4443109174624980  0.7703243261897625  0.3618901574026240   T   T   T
  0.0509187284280581  0.7109262340228879  0.6174773367521119   T   T   T
  0.1459354012936895  0.8389636780555246  0.1050918341459478   T   T   T
  0.5998362152247497  0.8709803907711804  0.8991023684086829   T   T   T
  0.8054990118537096  0.6329509907196025  0.0892839080795115   T   T   T
  0.2809712739337474  0.5528174362807701  0.0821606440219297   T   T   T
  0.0951506525142195  0.9277559758617201  0.8410389094862554   T   T   T
