Sr Co O 
 1.0000000000000000
    -4.8323560552031122    2.7823481664541898    0.7573403812868470
    -4.7609920456926993   -8.2471475339518570    0.6150021467788230
     3.3137734834817421    2.8674777675489271    8.6854354792846600
 Sr  Co  O  
   8   8  20
Selective dynamics
Direct
  0.0031458088551930  0.3089805659708982  0.8373133073411246   T   T   T
  1.0067411923987613  0.7143615432270916  0.1482559766358205   T   T   T
  0.0054627440922560  0.1152573881407932  0.3942817544166135   T   T   T
  1.0088611060242914  0.8465097385782111  0.5951223674954980   T   T   T
  0.4727131544984763  0.7650848083435595  0.8880918175236614   T   T   T
  0.5006388352481121  0.1876984215209956  0.1682253134367160   T   T   T
  0.5087347959763527  0.6178094432645356  0.3661645990820610   T   T   T
  0.5064523305262993  0.3918355405476985  0.5837127411159796   T   T   T
 -0.0151984721013948 -0.0186331725639348  0.0214482528391145   T   T   T
  0.5028136367315130  0.0001184151906282  0.5305145754672995   T   T   T
  0.4995330685868862  0.9049399334504177  0.2572772765409460   T   T   T
  0.5001956956541486  0.1584699316886480  0.8189977152344047   T   T   T
  0.5204768928668908  0.4998449717002234 -0.0135620038731456   T   T   T
 -0.0023007020250486  0.4859845207820577  0.4734940113432550   T   T   T
 -0.0206610381409033  0.3842117353880854  0.2003099859403313   T   T   T
  0.9911560684183668  0.5901653621165375  0.7468869806912735   T   T   T
  0.2707576538437693  0.8808992101083625  0.3918157099413173   T   T   T
  0.7246425362442734  0.8707743473982911  0.3969513523610703   T   T   T
  0.2648229033835430  0.0916888049671040  0.6650846716673444   T   T   T
  0.7347878114109487  1.0777056992343121  0.6842453343139697   T   T   T
  0.5174486003971320  0.1141481309085299  0.3960124167875350   T   T   T
  0.7405130976873365  0.9365894558827359  0.1321258763682565   T   T   T
  0.4756354214976813  0.6913689920159592  0.1412458381957856   T   T   T
  0.3892965804550469  0.3102564821555905  0.9806050702656739   T   T   T
  0.2576681256148155  0.9541141867650084  0.1305827456032071   T   T   T
  0.7418455714777915  0.3766029075669488  0.3538953166872438   T   T   T
  0.2335842745537239  0.6127467824262958  0.6120282658333495   T   T   T
  0.1991777643568497  0.3423119607796780  0.3361227800215288   T   T   T
  0.7772222025126035  0.6209773339860488  0.6002818300731136   T   T   T
 -0.0052195670794270  0.3806411100077506  0.6063736771568419   T   T   T
  1.0305699546417213  0.5877273162943011  0.3405558990798028   T   T   T
  0.7163513282047288  0.5347345232045905  0.8396125739693443   T   T   T
 -0.0636029744598585  0.1799392950538614  0.0554276342989138   T   T   T
  0.9971468565463186  0.8145839851560023  0.8524787252529321   T   T   T
  0.2196487810273187  0.5525334865238893  0.8861855359001540   T   T   T
  0.8169383461856591  0.4610169418549837  0.0798338310788688   T   T   T
