Sr Co O 
 1.0000000000000000
    -4.7331498091708815    2.7062700846104417    0.8251786988420995
    -4.7824717978181610   -8.2134365686936537    0.7448215577437477
     3.0686693952378592    2.8244718610683148    8.8007097426514225
 Sr  Co  O  
   8   8  21
Selective dynamics
Direct
 -0.0045276946206223  0.2886083945844858  0.8555912506283345   T   T   T
  1.0116533194747959  0.7124033179502374  0.1361868435072665   T   T   T
 -0.0052617807508139  0.1259854353866290  0.4005929808777079   T   T   T
  1.0088922521748531  0.8632178913392897  0.6120959786359328   T   T   T
  0.4884284417278746  0.7674923102433661  0.8614011092916259   T   T   T
  0.5154519721974371  0.2180254563419318  0.1298186766071102   T   T   T
  0.5190831639016420  0.6343729163090799  0.3615601328549845   T   T   T
  0.4913733913017335  0.3806198287331279  0.6372099847912800   T   T   T
  0.0161927414378614 -0.0031410091651494 -0.0149407230795713   T   T   T
  0.5067732778065934  0.0097421887951749  0.4989706731290565   T   T   T
  0.4695496649557898  0.9193060539720387  0.2365073890535092   T   T   T
  0.5031430157850362  0.0907658535292038  0.7793273533802852   T   T   T
  0.5011631087313625  0.5019480198992409  0.0002503874951006   T   T   T
 -0.0153864209943409  0.5078632325012372  0.5023942599589860   T   T   T
  0.0011289298901199  0.4141803915011507  0.2167728497922403   T   T   T
  0.9899739179718773  0.5875268717335832  0.7691379656647230   T   T   T
  0.2635123451528203  0.8829100030357092  0.4008466422367277   T   T   T
  0.7462374310862006  0.0946920252307943  0.6356012659836469   T   T   T
  0.7312967611387764  0.8832147834254747  0.3579234550140190   T   T   T
  0.2900869501086701  0.1285286492503555  0.6386856190961973   T   T   T
  0.4981446388955516  0.1236425686965880  0.3541166499393816   T   T   T
  0.2533939903790274 -0.0041427279709170  0.8332212913264249   T   T   T
  0.4937397921379792  0.7284552772371341  0.1082536126257207   T   T   T
  0.5196350034318638  0.2887732907951719  0.8977855174401546   T   T   T
  0.7184329718372450  0.0131897811660879  0.8930192780892445   T   T   T
  0.2036961497142511  0.9775659135916802  0.1415959857703816   T   T   T
  0.7961095233727215  0.3743476982961622  0.3583086822503950   T   T   T
  0.2270381812902966  0.6203490041071489  0.6328693549392583   T   T   T
  0.7583168753657409  0.6410251747186555  0.6350299378290115   T   T   T
 -0.0049364370403971  0.3860708309628961  0.6156159206319405   T   T   T
  1.0259025010237195  0.6050652062575395  0.3724045995300058   T   T   T
  0.2913051145189194  0.4645118065616228  0.1494638727951311   T   T   T
  0.7248525898854440  0.5241361325692913  0.8550616501314250   T   T   T
  0.0058704261863929  0.2143281026017752  0.0928808448368339   T   T   T
  0.9822188101833157  0.7829312071283537  0.9099179161953403   T   T   T
  0.2314333503704794  0.5200274984732252  0.8768102734026959   T   T   T
  0.7585820994554436  0.4929605937899633  0.1257104489052892   T   T   T
