Sr Co O 
 1.0000000000000000
     4.9357099270676574   -2.7385270605854415   -0.4668077074662701
    -4.9618056837260092   -2.7812861575956065    0.4526874321956846
     1.8867832297510840   -0.0477770050977219  -18.8699475251692448
 Sr  Co  O  
   8   8  20
Selective dynamics
Direct
  0.3619704265835361  0.6697011429743449  0.5465821725900114   T   T   T
  0.6686870861196924  0.3358696442769460  0.9528123518196845   T   T   T
  0.1209122807844057  0.8881181760418450  0.8225005474874123   T   T   T
  0.9007976056945892  0.1138551702048502  0.6771444910640860   T   T   T
  0.2240962548694856  0.7312442233147134  0.0881816909091993   T   T   T
  0.7458988987595686  0.2151687126292176  0.4131089655374894   T   T   T
  0.1223604618030277  0.8216490785923370  0.2990651918773689   T   T   T
  0.8288404525079887  0.1076993235195261  0.2024308128853186   T   T   T
 -0.0846123615580092  0.0238187461623300  0.0218163714817270   T   T   T
  0.5313835442732200  0.5214456162537767  0.7502619993834421   T   T   T
  0.4758960793162619  0.7130513571105012  0.8840065204228131   T   T   T
  0.7293696248537903  0.4707046992663217  0.6164664235364327   T   T   T
  0.0516525182520253 -0.0839215665374183  0.4783198213974308   T   T   T
  0.4758227326591945  0.4613091232748017  0.2500359729082649   T   T   T
  0.4264502224589551  0.5350143339479653  0.3808097509775818   T   T   T
  0.5376542184698384  0.3994255507508883  0.1192831233600299   T   T   T
  0.4768922606741944  0.3859069151564763  0.8442960111781725   T   T   T
  0.8911453498987882  0.5663633354012545  0.7083056923304086   T   T   T
  0.3990929045299491  0.4702928176820191  0.6561272775367526   T   T   T
  0.5793394194187433  0.8790955744219321  0.7919675745055436   T   T   T
  0.1710195880887127  0.7132197379923707  0.9269432337345564   T   T   T
  0.7425382272281787  0.1780157514931974  0.5710898479329527   T   T   T
  0.9747408119765855  0.8056123740054650  0.5728196304599202   T   T   T
  0.8109630419558633  0.9661220080216848  0.9273196307835372   T   T   T
  0.6311063758400207  0.3824699779748867  0.3176384238140511   T   T   T
  0.3204803267042268  0.5375533237585088  0.1823067830983602   T   T   T
  0.1455600386311081  0.2996181992116980  0.3145819974198752   T   T   T
  0.8088780716432704  0.6265597313165144  0.1873988519714397   T   T   T
  0.3863627879001791  0.1299090623390867  0.1894156181507924   T   T   T
  0.5669038682715661  0.7931330681653536  0.3089031297078899   T   T   T
  0.2001996354495231  0.6897390326485079  0.4326731244014190   T   T   T
  0.7829113804340490  0.2636061242457704  0.0674534912942516   T   T   T
  0.3033212353638403  0.2694422890940856  0.4542918432111971   T   T   T
  0.6671608147471211  0.6785999359849972  0.0543804514817628   T   T   T
  0.2536631421319918  0.1594964220627446  0.0526063160144123   T   T   T
  0.7275408456396796  0.7880911197489114  0.4380049487955976   T   T   T
