Sr Co O 
 1.0000000000000000
     4.7472895135595161   -2.8040599531558583   -0.6564374972722559
     4.6356051015419331    8.2452989009897788   -0.7572878400973234
    -1.4536590257118056   -0.0786717945406526    9.5808320898295918
 Sr  Co  O  
   8   8  20
Selective dynamics
Direct
  0.4277050066885112  0.1343239705129928  0.8482056012893127   T   T   T
  0.0539160831179041  0.3854934800513451  0.1283072845941923   T   T   T
  0.1951348810215586  0.0748576631078984  0.4108766920313445   T   T   T
  0.3391778095593850  0.4338996542638303  0.6423785438159388   T   T   T
  0.9253895661847019  0.6397724156817851  0.8422490546652295   T   T   T
  0.5319667485825029  0.8360770120169535  0.0874401167982984   T   T   T
  0.7270874230007753  0.5684508650606711  0.4126429418724723   T   T   T
  0.8418969347042491  0.9381529617144886  0.6521666186769499   T   T   T
  0.0177443891083553 -0.0074020486159944 -0.0072610592816853   T   T   T
  0.7593700258393234  0.2580248868948632  0.5076549698095776   T   T   T
  0.5850863092911712  0.2095744687194095  0.2378622552894842   T   T   T
  0.8938725233254827  0.2903834506283312  0.7758015500107540   T   T   T
  0.4813963684547976  0.5062156652362003 -0.0084536098395412   T   T   T
  0.2488927621620449  0.7508396528047308  0.4931701928834936   T   T   T
  0.0666410328042457  0.7206807054509162  0.2190143088646626   T   T   T
  0.3936626402838297  0.7879671699186912  0.7523722879470010   T   T   T
  0.9002877015325417  0.2733155024000680  0.3446900440792955   T   T   T
  0.6003057440443447  0.1918889397627693  0.6375505678739354   T   T   T
  0.4584902877923027  0.3065660980678406  0.3918087542171534   T   T   T
  0.0470820765103132  0.1912163815295545  0.6231133972034779   T   T   T
  0.8355479326371729  0.4297806757446376  0.6459675788188889   T   T   T
  0.3728398997570747  0.0938675773746512  0.1017007397448712   T   T   T
  0.2144483566174246  0.3797455115776183  0.8932230132049498   T   T   T
  0.9404924926585773  0.1436267181243662  0.8970307235533054   T   T   T
  0.7075580625865775  0.3816708434097060  0.9080703094239018   T   T   T
  0.1041590635390000  0.6772679615811229  0.6261336106701585   T   T   T
  0.9579830565212533  0.8167313653732839  0.3820415451569195   T   T   T
  0.5596152349488951  0.7029386172623485  0.6061609361712152   T   T   T
  0.3176046661375308  0.9254959532326652  0.6209412102773807   T   T   T
  0.2204582368178095  0.5958862499529033  0.3474389371125274   T   T   T
  0.7311004696030132  0.5838157914169335  0.1513734906381417   T   T   T
  0.6823790229952806  0.8992009308257622  0.8746831416564319   T   T   T
  0.0181261620156596  0.8994590193830780  0.1487651343383876   T   T   T
  0.4762408366389268  0.6382567542117870  0.8582328904216986   T   T   T
  0.1858408259004123  0.8733398839909028  0.8669868304830595   T   T   T
  0.2159989967711370  0.6311172418455054  0.0809593087830373   T   T   T
