Sr Co O 
 1.0000000000000000
     4.6853990209339704   -2.7011082383764204   -0.7193692492549540
     4.8994785097756512    8.4185993497773257   -0.7566507448084784
    -1.5198229033100514   -0.0295231315104721    9.5658387101965623
 Sr  Co  O  
   8   8  20
Selective dynamics
Direct
  0.4629620499306444  0.1324627583795049  0.8627922653164160   T   T   T
  0.0548096491659729  0.3549970726046524  0.1579581276102598   T   T   T
  0.1408153527097553  0.0332230217691194  0.3378992455231909   T   T   T
  0.3204036692390329  0.4758889772966651  0.6363295896982674   T   T   T
  0.9341571975890999  0.6707086381547238  0.8498603713436751   T   T   T
  0.5488510732796380  0.8395010965405768  0.0867503684629091   T   T   T
  0.7088620752166261  0.5563283246393290  0.3902658676059780   T   T   T
  0.8092503384272847  0.9193737221782989  0.6060670182517934   T   T   T
  0.0029102472229089 -0.0104206034435455 -0.0079550489524188   T   T   T
  0.7677671775693322  0.2348000058985671  0.5110595922873432   T   T   T
  0.6028089383719497  0.1880153433580675  0.2272799843612272   T   T   T
  0.8937642426429101  0.3340646566077522  0.7897857784153560   T   T   T
  0.4784604004982424  0.4845293657893703  0.0031085426238999   T   T   T
  0.2322675809095431  0.7465952896180038  0.4791164736527310   T   T   T
  0.0643716234291541  0.6793235451145097  0.1995210136530248   T   T   T
  0.3820415510879436  0.8017123324068834  0.7430070909507647   T   T   T
  0.9338914979987220  0.2759079707678228  0.3797092892587947   T   T   T
  0.7201355574511834  0.1699515494993688  0.6719849171709509   T   T   T
  0.2381088638375959  0.3633092009206776  0.8421886551889390   T   T   T
  0.7896892205936038  0.4172862754161386  0.6109831879071224   T   T   T
  0.6361746422290457  0.0745404607696505  0.3822083671471885   T   T   T
  0.2684724462974270  0.1158930947704500  0.1189715595718320   T   T   T
  0.5337093577420029  0.3557388692011452  0.1752033268049288   T   T   T
  0.7300143650489390  0.3712634245336657  0.9294452406234180   T   T   T
  0.7835522332841776  0.0780838692837957  0.0988989435042073   T   T   T
  0.0766101961283189  0.6954050027164765  0.6303320128848757   T   T   T
  0.9447905758477422  0.7992353944381670  0.3508045041030862   T   T   T
  0.5406782135931069  0.7006956097645226  0.5992490420592835   T   T   T
  0.2929269046689717  0.9286257961120986  0.5934852522332149   T   T   T
  0.2023109452191944  0.5710252632095043  0.3557458240788854   T   T   T
  0.7215060299243082  0.6021310028554734  0.1426091910502869   T   T   T
  0.7049350478955738  0.9038578591414446  0.8458924660462992   T   T   T
  0.0896273519441321  0.8339406564909619  0.1144014939819270   T   T   T
  0.4626202559210499  0.6570518031705397  0.8603498271435737   T   T   T
  0.2014718613516066  0.9212685782492583  0.8653889759935883   T   T   T
  0.1977714053479018  0.5661844956379830  0.0646014772319693   T   T   T
