Sr Co O 
 1.0000000000000000
    -4.7859280253835221    2.7626891409033818    0.6466274911814373
    -4.8544747105028847   -8.4160309310156141    0.6705628129412712
     3.4682081982995214    2.8226931299326097    8.7386283463026988
 Sr  Co  O  
   8   8  20
Selective dynamics
Direct
 -0.0357942143091168  0.2904170061198645  0.8987266360162386   T   T   T
  0.9813645309230112  0.7286994862184433  0.1386437709814929   T   T   T
  0.0198152001788180  0.1019489601260953  0.3561333198535322   T   T   T
  0.9830142658665798  0.9060758459256987  0.6200276455837964   T   T   T
  0.5193738691214567  0.8094797065279883  0.8755733577238729   T   T   T
  0.4917350247133712  0.1948926576680673  0.1399237818079755   T   T   T
  0.4926945139049027  0.6520770435896418  0.3581180819038653   T   T   T
  0.5069117279688852  0.3490327941899414  0.6215791436471509   T   T   T
 -0.0051546335370939 -0.0000336155062398 -0.0068931305926224   T   T   T
  0.4972584876586439  0.0012279539285213  0.4957046930285012   T   T   T
  0.5076486126526328  0.9147545930785379  0.2261648207437493   T   T   T
  0.4777508324609810  0.0801012193654893  0.7617970317669773   T   T   T
  0.4645834523788830  0.5064480428015526  0.0187995396688051   T   T   T
  0.1135733957548560  0.5556572187876897  0.5269195968528119   T   T   T
 -0.0058232993988686  0.4187194814161455  0.2428714143147477   T   T   T
  1.0652397020257041  0.5809713344271527  0.7963947716924812   T   T   T
  0.2733649424358674  0.8800996102515155  0.3475705749650019   T   T   T
  0.7156954657237784  0.1292664803575332  0.6512872780665181   T   T   T
  0.7351658876407821  0.8877503011444193  0.3711318968588817   T   T   T
  0.2602384463372394  0.1194318997932622  0.6151313615438042   T   T   T
  0.4869885599512054  0.8733881903849543  0.6036752365566315   T   T   T
  0.5108829681720198  0.1173406738566037  0.3715369783777051   T   T   T
  0.7624391625349469  0.9566256490564756  0.1240137611076311   T   T   T
  0.2297387979382394  0.0721024011748477  0.8766650136953782   T   T   T
  0.5209118110875509  0.7104642369663735  0.0975873199027190   T   T   T
  0.7175330510170455  0.0611650037138239  0.8973905410330816   T   T   T
  0.2568437428830743  0.9499415095067930  0.0983261015474386   T   T   T
  0.3202967572082894  0.5980996911734752  0.6832836633782218   T   T   T
  0.2548666468141700  0.4010152638157363  0.3837771980589701   T   T   T
  0.9191075018751745  0.6035196327099007  0.3977640745910473   T   T   T
  0.1987407638184883  0.4973506114228713  0.1348387732892612   T   T   T
  0.7980998885270736  0.5070871863851256  0.8356420575030739   T   T   T
 -0.0084233803760973  0.2216683054112008  0.1567437952054756   T   T   T
  0.9655208273374805  0.7693289399526696  0.8235820371408510   T   T   T
  0.2722515931443072  0.4439207194954444  0.8445966195786061   T   T   T
  0.6942454555801212  0.4286639500808277  0.1183709829691429   T   T   T
