Sr Co O 
 1.0000000000000000
     0.0782994027939596    5.5446799871612704    0.1504867820825893
    -9.5701465905837217   -0.1466131513911095    1.4698651581750402
    -1.5382766184565881    0.2656265439233055    9.6796034923658976
 Sr  Co  O  
   8   8  21
Selective dynamics
Direct
  0.0042511354459578  0.7059954463226717  0.8605222254280624   T   T   T
 -0.0104333003005321  0.2860578319062994  0.0961891541803136   T   T   T
  0.0255569697235363  0.8720356421007698  0.3906259099237077   T   T   T
  0.0351310538023589  0.0890853716131916  0.6616968023453338   T   T   T
  0.5084213587442743  0.1893429635682909  0.8746059435771852   T   T   T
  0.4970756043003545  0.8018152775182871  0.1257524964845524   T   T   T
  0.4422994903835676  0.3897014177278254  0.3590902740995277   T   T   T
  0.5118210695065465  0.6309189379451888  0.6498058024574531   T   T   T
 -0.0103057869942317 -0.0069140106614391  0.0123192314943928   T   T   T
 -0.0022727841328296  0.5187847143510724  0.4997011144284405   T   T   T
 -0.0042643653225647  0.6138665013783849  0.1967086577240605   T   T   T
  0.0365315707817705  0.4012600549806270  0.7710760158022664   T   T   T
  0.5062167295859991  0.4927157867668873  0.0042118179108962   T   T   T
  0.5099695810298748 -0.0028817290556707  0.5144941912240546   T   T   T
  0.4789075646129851  0.0940260915172850  0.2299401868777204   T   T   T
  0.5192885181092447  0.9000036081367009  0.7787162979037263   T   T   T
  0.0459455353115944  0.6037262736694903  0.6475850760861841   T   T   T
  0.2038706462453143  0.6255457630589218  0.3402188411483725   T   T   T
  0.6961220179273039  0.5407056580216574  0.4570584376078763   T   T   T
  0.1599899523860426  0.3576250289357538  0.5985758305640494   T   T   T
 -0.0578662840559755  0.8059864531452975  0.1605512731295932   T   T   T
  0.0075954012536255  0.1953929785477713  0.8666404764121605   T   T   T
  0.2016349642167933  0.5033189069899069  0.1302719452816735   T   T   T
  0.7888208818889830  0.4475973999570715  0.8798749981579890   T   T   T
  0.3139755780787595  0.4245658768389312  0.8748289092133925   T   T   T
  0.7149768759002652  0.5588824746764497  0.1339863644208418   T   T   T
  0.5418503731226659  0.9138603811531575  0.3667689210491483   T   T   T
  0.5392580934407519  0.1011286788470775  0.6500120748973172   T   T   T
  0.2797374996571171  0.8704701124318286  0.6523030738749178   T   T   T
  0.7456903925329552  0.8786933726931292  0.6217641272883560   T   T   T
  0.2926220340580766  0.1195696778168590  0.3984148784397161   T   T   T
  0.5312918858352331  0.2903335024170262  0.1516485335012604   T   T   T
  0.4931808680608414  0.6964997013833696  0.8800134681929538   T   T   T
  0.7012930152874233  0.0578275297710008  0.0951482531764230   T   T   T
  0.2768231447745299  0.9412745259082352  0.9097535083297781   T   T   T
  0.7859140022624812  0.9269233795847106  0.8842728502003199   T   T   T
  0.1890783056053598  0.0472584688073396  0.1474513701460046   T   T   T
