Sr Co O 
 1.0000000000000000
    -4.7481157357962687    2.7420411112008241    0.6957520909210845
    -4.7404452805538266   -8.2441746620844789    0.8084134717213992
     3.1959098860077577    2.6611782234898920    8.7467611912457119
 Sr  Co  O  
   8   8  20
Selective dynamics
Direct
 -0.0284251145785227  0.3064220862307210  0.9051426061637126   T   T   T
  0.9913790682108281  0.6879814552422591  0.1612272541859073   T   T   T
 -0.0029561131595661  0.1227072978659722  0.3765822454684765   T   T   T
  0.9999680664254832  0.8764463172940220  0.5846929665547291   T   T   T
  0.5172295832648519  0.7805176693487451  0.8294372958451629   T   T   T
  0.4920431724551103  0.2301486800146492  0.1524491285178982   T   T   T
  0.5000001589543552  0.6110420571556356  0.3894145973481053   T   T   T
  0.5104477957793542  0.3457715232784536  0.5970106385453864   T   T   T
  0.0051253210576751  0.0081106930820000 -0.0159321152624972   T   T   T
  0.4999640511633938 -0.0099399546659050  0.4778935809537817   T   T   T
  0.4547105550626686  0.9131027395519751  0.2132323446600486   T   T   T
  0.5177364544283573  0.0932432921776783  0.7492605019428855   T   T   T
  0.4887968546861187  0.4924351041097061 -0.0011476560235208   T   T   T
  0.0070181033574739  0.4958634441344814  0.5175322694023193   T   T   T
 -0.0054129894687151  0.4081256767271613  0.2514089396506998   T   T   T
  1.0177400148679654  0.6170232286642900  0.8084546446950989   T   T   T
  0.2412353491921546  0.8740452501227569  0.3549702540957926   T   T   T
  0.7546801807140326  0.1121251241701179  0.5974888886621059   T   T   T
  0.7021105099448618  0.8582348327619246  0.3252430579356088   T   T   T
  0.2787174672850111  0.1110622139300123  0.6103406856164276   T   T   T
  0.5117710034421423  0.8817202155182231  0.6163243529346251   T   T   T
  0.4964601291401259  0.1103294334176936  0.3544010263187111   T   T   T
  0.4527150184125369  0.2932156326231712  0.8572189029928167   T   T   T
  0.7190484105632943  0.0667243034207398  0.9007845022360229   T   T   T
  0.3034369855446174  0.9574892353290814  0.0634399104412674   T   T   T
  0.7722944771152955  0.3731315615942967  0.3862466390461375   T   T   T
  0.2443273728572231  0.5783820565562231  0.6591988809305414   T   T   T
  0.2317816839618641  0.3755425037456667  0.3888325484887319   T   T   T
  0.7795207099322171  0.5839212370798915  0.6498903727627656   T   T   T
  0.9985340943472010  0.6128104118556427  0.3855175602423986   T   T   T
  0.2362809897674804  0.4552242615635743  0.1345096195863531   T   T   T
  0.7849017172624210  0.5664477246366709  0.9152754924468600   T   T   T
 -0.0017436885312565  0.1896222762155260  0.1318061264119450   T   T   T
  1.0100159957150696  0.8358097636155957  0.8354289793941359   T   T   T
  0.2778385480197690  0.6250638566922657  0.9508531023205437   T   T   T
  0.7265582782039446  0.4589470560485086  0.1382699677704811   T   T   T
