Sr Co O 
 1.0000000000000000
     0.0125461230695340    5.4219781296462877   -0.0049518043514862
     9.8884722364052049    0.0112466634839446   -1.1133516868866329
    -3.8441034659002882   -2.7017075851063348   -8.8161510136467349
 Sr  Co  O  
   8   8  20
Selective dynamics
Direct
  0.5562593755319012  0.8320875160499819  0.1701975438837879   T   T   T
  0.9340648808722537  0.6540579448592877  0.9139738574965819   T   T   T
  0.7821170794075990  0.9497591882598903  0.6223960643443834   T   T   T
  0.6461604784449971  0.5722987716075721  0.3553232012837353   T   T   T
  0.0264636284425226  0.3732679951358023  0.1014635031489711   T   T   T
  0.3884959499906154  0.1767897503532118  0.8255203821226537   T   T   T
  0.3023272816364012  0.4483549881772516  0.6305817283634915   T   T   T
  0.1690297105777598  0.0401583477640315  0.3788613375860642   T   T   T
  0.0246355610590408  0.0280173859744756 -0.0121620686705951   T   T   T
  0.7219189981035631  0.2409513593547390  0.4761665742389127   T   T   T
  0.8551853684507815  0.2944858450324452  0.7482921178593647   T   T   T
  0.6178440536936806  0.1526286468814759  0.1487608453043103   T   T   T
  0.4721811820924297  0.5122738655147361 -0.0100333212405893   T   T   T
  0.2351126233240883  0.7519322062991661  0.5232752963163640   T   T   T
  0.4448075588787896  0.8305469175417194  0.8199877845443272   T   T   T
  0.1035135381498643  0.7060368601584956  0.2570131330325061   T   T   T
  0.7822252573886405  0.4258487866649192  0.5231165511219340   T   T   T
  0.0145519539148964  0.1820566259436128  0.6029774639612697   T   T   T
  0.6094039162950641  0.0887696174148402  0.3105988555660991   T   T   T
  0.5351005177190098  0.1999584564542882  0.6051557558119237   T   T   T
  0.9227996682400795  0.1577440536017145  0.8690731014436678   T   T   T
  0.5300638751256221  0.3149884812884228  0.1087154897075625   T   T   T
  0.1599355123469029  0.4155952436876560  0.8448651345965698   T   T   T
  0.9838453160444900  0.1438097729304537  0.1642409421864330   T   T   T
  0.6611459053056388  0.4202124187196802  0.8530860933843014   T   T   T
  0.2840407232568044  0.9210198999344635  0.6808143003461959   T   T   T
  0.1612470013634424  0.5714754289592603  0.3753218022384546   T   T   T
  0.9419116302337310  0.8086413427693127  0.4046632528194027   T   T   T
  0.4153470251326300  0.8137094052462504  0.3925616833957465   T   T   T
  0.4794412904157699  0.6870286354634549  0.6492458980563057   T   T   T
  0.4123947061146004  0.6938620241540052  0.9049453317349393   T   T   T
  0.0456735215859421  0.8395151896907114  0.1556050109233893   T   T   T
  0.8212564178549329  0.8799026147060168  0.8556006512532220   T   T   T
  0.7845795752410442  0.5959391198921846  0.1347780631758995   T   T   T
  0.2885739472982731  0.5934132629782377  0.1293205176547564   T   T   T
  0.3903448305495634  0.9968616386282864  0.9876961863561154   T   T   T
