Sr Co O 
 1.0000000000000000
    -4.8710077514235053    2.7016864146001014    0.6013721133113353
    -4.8550927660391388   -8.0806377285381430    0.6448174367546217
     3.5723322252300109    2.6647196272784415    8.7931311090044897
 Sr  Co  O  
   8   8  20
Selective dynamics
Direct
 -0.0051605955297474  0.2977950313618700  0.8864049025154499   T   T   T
  0.9943929033129181  0.7001145479491712  0.1577163243742222   T   T   T
  0.0173935347009621  0.1098231750970767  0.3463270429178602   T   T   T
  1.0129557650886709  0.8770965131188428  0.6015187566746595   T   T   T
  0.5114556383356694  0.7847163124277599  0.8451637027050729   T   T   T
  0.4837521590563806  0.2302177650562861  0.1313797894207895   T   T   T
  0.4905003018552472  0.6028376535363419  0.3938053165773748   T   T   T
  0.5157223834481830  0.3573272564892462  0.6198829644077107   T   T   T
  0.0197302393388185  0.0013822370507626 -0.0011558449010997   T   T   T
  0.5119746163374681 -0.0165765991295577  0.4914410601502547   T   T   T
  0.5230040233489084  0.9130671814601971  0.2211078604784399   T   T   T
  0.4716892472199624  0.0929737840594820  0.7526600892260034   T   T   T
  0.4920577839197501  0.5026284204910744  0.0016469044383059   T   T   T
  0.0056956249556953  0.4817058686412865  0.5052985252344432   T   T   T
 -0.0171984731229379  0.4106535880982853  0.2411116449347371   T   T   T
  1.0067535846511622  0.6115432996512933  0.7992590575932433   T   T   T
  0.3156430409215669  0.8580587611485901  0.3320127428695910   T   T   T
  0.7299272822159164  0.1169126404052160  0.6467130851528075   T   T   T
  0.7560980061101085  0.9006251598479311  0.3674467315364772   T   T   T
  0.2600416796586117  0.1143833333435324  0.5732990203699377   T   T   T
  0.4903767293314348  0.8765654754299521  0.6323744602418844   T   T   T
  0.7503220171238688  0.9311298471689967  0.1085862147956260   T   T   T
  0.2711243599478504  0.0590769171264101  0.8742371706331074   T   T   T
  0.4677226087119151  0.3035722098806266  0.8571153614320968   T   T   T
  0.2807211417639603  0.9960863061385908  0.1406972137587585   T   T   T
  0.7705084133844249  0.3573166863865601  0.3665197027687969   T   T   T
  0.2334791357965673  0.5748706498272191  0.6593646634964991   T   T   T
  0.2317818987905655  0.3576602327069930  0.3735214350714677   T   T   T
  0.7760645523341377  0.5721786618440937  0.6328215849678561   T   T   T
  1.0091427779187017  0.6142470292115745  0.3884224283503926   T   T   T
  0.2177989518043500  0.4545181359359800  0.1314335327734416   T   T   T
  0.7828178324247390  0.5527320055079135  0.8948070654013446   T   T   T
 -0.0709905436248905  0.2045847303178174  0.0877197249749550   T   T   T
  0.9621039482867765  0.8319515851214663  0.8394278456169577   T   T   T
  0.2694965260856475  0.6284289117881772  0.9494331249384054   T   T   T
  0.7081008569414261  0.4907948260468336  0.1504785631108597   T   T   T
