Sr Co O 
 1.0000000000000000
     4.7801825324842691   -2.7633604431086378   -0.7210249441944511
     4.7349465804265058    8.2081116495373632   -0.7914291361206593
    -1.5836915526814168   -0.0803053637958433    9.4401467093394640
 Sr  Co  O  
   8   8  20
Selective dynamics
Direct
  0.4066767404562921  0.1421338967661413  0.8513824129988743   T   T   T
  0.0903483740773371  0.3719784589187903  0.1559980665314532   T   T   T
  0.2190807050007335  0.0942222060691088  0.3965726638420742   T   T   T
  0.2949302225611700  0.4410159115382855  0.6109423984275671   T   T   T
  0.9214560824700633  0.6323892129806602  0.8485147639878572   T   T   T
  0.5565982198617474  0.8472959838848431  0.1482661554762896   T   T   T
  0.6943426521790580  0.5543927608012932  0.4083420860982843   T   T   T
  0.7820123665279306  0.9491583577332245  0.6143527592306995   T   T   T
 -0.0094728447113439 -0.0051652643383420 -0.0016369419289946   T   T   T
  0.7520054148638649  0.2509594974403407  0.4945969561864821   T   T   T
  0.6012793266338806  0.2084820377146463  0.2218941943597971   T   T   T
  0.8952538142704218  0.2825520934059222  0.7651133160846111   T   T   T
  0.5026528996822570  0.4994651755832545  0.0128810377916460   T   T   T
  0.2466098956768503  0.7629964758136335  0.5124423101740233   T   T   T
  0.1160614517527204  0.7045046838447675  0.2157724338978358   T   T   T
  0.4085705948784513  0.7872458898943748  0.7770877199916458   T   T   T
  0.9034808583585184  0.3036438643129253  0.3531682047357945   T   T   T
  0.5887292577188322  0.2008953859975329  0.6352650860480988   T   T   T
  0.4505200871144550  0.3218118945784140  0.3821569675052648   T   T   T
  0.0507127630386662  0.1865395894721436  0.6072784278528076   T   T   T
  0.8263082073887786  0.4239612935638980  0.6357872926198167   T   T   T
  0.6882925974142260  0.0704059724492650  0.3548600860095201   T   T   T
  0.2863047874165897  0.1058636252290538  0.1134700649014410   T   T   T
  0.1567376305711354  0.3881880395824145  0.8970476380755128   T   T   T
  0.6144685712709000  0.3213881175031122  0.0791340497513957   T   T   T
  0.9214614133316752  0.1141052156970710  0.8608449322014339   T   T   T
  0.3386941338545552  0.8361982389293784  0.3644062873275337   T   T   T
  0.0926221629748262  0.7093127886599501  0.6505589376188760   T   T   T
  0.5747660612121892  0.6943271481788484  0.6220800308362352   T   T   T
  0.3258140436628909  0.9326478256604595  0.6526756294670998   T   T   T
  0.1160783972318332  0.6037071461617907  0.3738253060346858   T   T   T
  0.8431284812569100  0.5991295142721916  0.0960811345787179   T   T   T
  0.6509150739418490  0.9108219768175229  0.9235577288201050   T   T   T
  0.1013044053928918  0.8323777292900744  0.0722553513861809   T   T   T
  0.4400012008740149  0.6196251735746245  0.8676477077579967   T   T   T
  0.3897534197286507  0.5949221495911646  0.1726768337471976   T   T   T
