Sr Co O 
 1.0000000000000000
     4.6708935266287330   -2.7183729429845429   -0.7597696283073287
     4.9247943456612360    8.5661261495304455   -0.6064743024732110
    -1.5052231071283124    0.1394880489928931    9.5222236108796530
 Sr  Co  O  
   8   8  20
Selective dynamics
Direct
  0.4633983951032481  0.1356647362121741  0.8584093926339004   T   T   T
  0.0831249347943334  0.3674069629710293  0.1782965980008467   T   T   T
  0.1418700285725797  0.0371288119782970  0.3435575185005649   T   T   T
  0.3174627627613561  0.4823960711249768  0.6317910810667282   T   T   T
  0.9457667477740445  0.6740231027475416  0.8551381531065685   T   T   T
  0.5646083204423288  0.8364435397136920  0.0884306394576143   T   T   T
  0.7068476313187499  0.5765948253893272  0.3967456642854703   T   T   T
  0.8213448386254467  0.9288413484247063  0.6113596777105255   T   T   T
  0.0083221288201843 -0.0075056662185253 -0.0097076459327177   T   T   T
  0.6351358224069287  0.2432540467800406  0.5173811785025182   T   T   T
  0.5917082852935983  0.1738838032814847  0.2147034397013984   T   T   T
  0.9071301562009850  0.3418388217251365  0.7950697534313595   T   T   T
  0.4976217154903310  0.5005084348920009 -0.0040472548249723   T   T   T
  0.2356309321437887  0.7557802431921163  0.4827890555816989   T   T   T
  0.0833000493428197  0.6872151739118930  0.2044454663306313   T   T   T
  0.3887612704224392  0.8070256481711052  0.7462203908266815   T   T   T
  0.7695198220735041  0.1687544698170381  0.7006107449992601   T   T   T
  0.3016401221008497  0.2769960650209878  0.4411622594682340   T   T   T
  0.7837398039117113  0.4210322511582194  0.6116346024948645   T   T   T
  0.6732811901371326  0.0841569377425276  0.3899199710067281   T   T   T
  0.2552390767127440  0.1326205545464752  0.0935171398530010   T   T   T
  0.2527582782929571  0.3762724961687930  0.8480443130685146   T   T   T
  0.6516866680660930  0.3524413166542033  0.2451988064155413   T   T   T
  0.7471928115193790  0.3816340493726364  0.9365403260675772   T   T   T
  0.7853261377897837  0.0731012620278926  0.1047068739036146   T   T   T
  0.0792310968472457  0.7046694648412694  0.6337923581749957   T   T   T
  0.9442351738295591  0.8037032518635177  0.3483258476276022   T   T   T
  0.5466935305106898  0.7117206319186402  0.6056391320922435   T   T   T
  0.3000236376152432  0.9349637291000987  0.5938133563551609   T   T   T
  0.2087768276833815  0.5831972364198275  0.3654835074173098   T   T   T
  0.7462058025744698  0.6033160402444873  0.1417959160094406   T   T   T
  0.7132639932475169  0.9047645600262568  0.8518284812829383   T   T   T
  0.1159661035219990  0.8397988745331072  0.1185134598966417   T   T   T
  0.4721831173471435  0.6605007674640793  0.8659781565714708   T   T   T
  0.2116125992669020  0.9225597348264241  0.8658285542654960   T   T   T
  0.2338901466248265  0.5707964880557894  0.0797827015336980   T   T   T
