Sr Co O 
 1.0000000000000000
     4.7357777499678839   -2.7458772472349486   -0.7804685150065123
    -4.7593211268189215   -2.8124071541981652    0.6912461738607996
     3.1101338878628817   -0.3380896629706705  -18.7546268635980269
 Sr  Co  O  
   8   8  20
Selective dynamics
Direct
  0.2859056647878878  0.7279840286197723  0.5700113043241698   T   T   T
  0.6810842756743082  0.2846629674424760  0.9302363615840304   T   T   T
  0.0947983240744266  0.8582309743977391  0.8118230522649413   T   T   T
  0.8187549631544099  0.1249379806366052  0.6951655386404854   T   T   T
  0.3035439481255771  0.7283505150469737  0.0699473206378909   T   T   T
  0.7442072673006807  0.2827348797472529  0.4300841315725908   T   T   T
  0.1405699403959719  0.8566095374456186  0.3115385511952106   T   T   T
  0.9167004016555799  0.1247619453035971  0.1950426382811600   T   T   T
 -0.0113134611000397 -0.0127132135081815  0.0076908788043440   T   T   T
  0.4317038226930828  0.4686199397095138  0.7489939027724578   T   T   T
  0.4012686971175441  0.6085892870749292  0.8819509466892677   T   T   T
  0.5454443952132020  0.3985696538189102  0.6114292173989284   T   T   T
 -0.0156147265168558 -0.0131626022784953  0.5077196554822472   T   T   T
  0.5398718119732753  0.4672589660768646  0.2489137313928634   T   T   T
  0.4448590706517082  0.6072362961684241  0.3817823363763970   T   T   T
  0.6314740867217270  0.3986400055824526  0.1115798207475657   T   T   T
  0.5808012657218996  0.3794710667542080  0.8125943654869920   T   T   T
  0.3104397756747596  0.5661168143840050  0.6821242758550440   T   T   T
  0.0974265178086929  0.3689073009826011  0.8331786029862446   T   T   T
  0.3468628222421243  0.1312098423978834  0.6840834028756924   T   T   T
  0.6017488282010103  0.8359121396672999  0.7956837997448361   T   T   T
  0.2075031771962020  0.8373867121860382  0.9365578032105294   T   T   T
  0.7934022585303140  0.2422537227565735  0.5654409502961714   T   T   T
  0.8206931651411820  0.7557798823145916  0.5865298121008931   T   T   T
  0.3268708326416722  0.2714439137592822  0.5304061336924971   T   T   T
  0.6608776797173823  0.7530779226205992  0.9412430135605820   T   T   T
  0.6083599181383497  0.3700876293408443  0.3329602350145766   T   T   T
  0.1743084517366796  0.3758684331843747  0.3124403873773321   T   T   T
  0.8930698673664513  0.5660478883024699  0.1825701740738607   T   T   T
  0.4171916073349980  0.1301666541410546  0.1838357418418776   T   T   T
  0.6419740669974596  0.8342115692242404  0.2952290692294884   T   T   T
  0.2125142283182108  0.7516689353147844  0.4409102843839396   T   T   T
  0.8825705800601823  0.2693599530039859  0.0311254397019858   T   T   T
  0.7645663469619576  0.7549231867841500  0.0864940514909692   T   T   T
  0.3187037695206704  0.2438994489667062  0.0652417758147168   T   T   T
  0.7598563165368795  0.8378958541317060  0.4360913999042241   T   T   T
