Sr Co O 
 1.0000000000000000
     0.0674754700959918    5.6144542051622235    0.0358906762277779
    -9.5445832777940964   -0.0981250253638041    1.8079285208011977
    -1.8067485710473326    0.0374056569735207    9.5832090429235812
 Sr  Co  O  
   8   8  20
Selective dynamics
Direct
 -0.0150836043624341  0.7283214170401549  0.8521114058507733   T   T   T
  0.0543512169936047  0.2561016953579330  0.1331425309260509   T   T   T
  0.0269722331481541  0.8894222064369542  0.3891451768446099   T   T   T
  0.0068746916298438  0.1129065679837163  0.6253755166837861   T   T   T
  0.5170216017833897  0.1784936053569753  0.8809275355597118   T   T   T
  0.4980189775744429  0.7705725394801582  0.1292233191343937   T   T   T
  0.5375781210681726  0.3488700933035101  0.3651455070836083   T   T   T
  0.4875127725801969  0.6363227599269848  0.6527417820931622   T   T   T
  0.0021207479637169  0.0018172501265993 -0.0054104432236742   T   T   T
 -0.0673199553691597  0.5492246951939354  0.4580645424840794   T   T   T
  0.0303883255520187  0.5406849136392077  0.2141415643900060   T   T   T
  0.0165354901117367  0.4183819064475590  0.7895010927558292   T   T   T
  0.5289646061260516  0.4888806241572008 -0.0034381026590257   T   T   T
  0.5156979547161759  0.0070430191122121  0.5062137287979551   T   T   T
  0.5393281022911179  0.0881133499590537  0.2219828792393039   T   T   T
  0.4920379219017378  0.9060190108212415  0.7743415956032731   T   T   T
 -0.0019320527584734  0.3778314822961830  0.4142989256512572   T   T   T
  0.1024653748957412  0.6935141024343684  0.2845987945362958   T   T   T
  0.0597406373420337  0.5916099835077753  0.6134412819722919   T   T   T
  0.6206330582852847  0.5807777000239797  0.4314081472863771   T   T   T
 -0.0241980173252964  0.2167167559114836  0.8370787186184028   T   T   T
  0.2923394867523501  0.4765082883485629  0.1468843223330616   T   T   T
  0.7635861475044158  0.5002900741786698  0.8487137055600095   T   T   T
  0.3080683723993626  0.4132659769930624  0.8808038742553080   T   T   T
  0.7620812795123508  0.5641859853027338  0.1081281301219629   T   T   T
  0.5136301776003303  0.1237902908587325  0.6433657351942401   T   T   T
  0.7589693431296620  0.1006400343027882  0.3709335789074553   T   T   T
  0.2674889720440184  0.8878831757508630  0.6255697674592793   T   T   T
  0.7281732503015151  0.8752216052370655  0.6363250617390301   T   T   T
  0.3057082789233094  0.1130712052766306  0.3579246501210135   T   T   T
  0.6162360784263250  0.2900915371221670  0.1044056254121930   T   T   T
  0.4376527915187390  0.6948424854171201  0.8894374730963369   T   T   T
  0.7817102674939510 -0.0036785034892375  0.1478594598643167   T   T   T
  0.2357802473523492  0.9402946311412805  0.8934968060138135   T   T   T
  0.7409805619146211  0.9266215728409545  0.9014408753719259   T   T   T
  0.2858862128909819  0.0323460911464993  0.1253751143680360   T   T   T
