Sr Co O 
 1.0000000000000000
     4.7993774593697411   -2.8141918171913329   -0.8192987077627160
    -4.7919050585461154   -2.8097998033349527    0.6706338959546562
     3.1966645218051393   -0.5057958099707202  -18.9279600287264245
 Sr  Co  O  
   8   8  20
Selective dynamics
Direct
  0.2840885706107211  0.7112090195996266  0.5712445016699325   T   T   T
  0.7438084393495478  0.3520737273669860  0.9525930970998394   T   T   T
  0.0985301924091191  0.9044284440181621  0.8278722321277914   T   T   T
  0.8138148335775005  0.0828967475303860  0.6982378397087046   T   T   T
  0.3311876475114222  0.7571088273744536  0.0789752575438257   T   T   T
  0.7254427082470224  0.2595830113919990  0.4156021895179426   T   T   T
  0.1642178778592153  0.8689759436638897  0.2931967500500231   T   T   T
  0.9134557652016543  0.1397940891944943  0.1841017062537049   T   T   T
  0.0403930079970527  0.0483195434545185  0.0045395525628311   T   T   T
  0.3503380902242358  0.4544289408465498  0.7513391035269762   T   T   T
  0.4361949136107308  0.6624067357611086  0.8984741266348626   T   T   T
  0.5983783534466091  0.3819102818281458  0.6166863804131522   T   T   T
 -0.0687461309586666 -0.0887030763156682  0.5064544025804678   T   T   T
  0.5254834737357094  0.5230451563621866  0.2562945824179166   T   T   T
  0.4173833233805406  0.6094640341427137  0.3904874236813357   T   T   T
  0.6275205308641336  0.4436921829838182  0.1213859937860278   T   T   T
  0.4089395511155274  0.1379467065798812  0.7008872370276099   T   T   T
  0.2964091929023994  0.4805595931273525  0.6600091813531750   T   T   T
  0.0120049414688604  0.3969058227235500  0.8101225290657045   T   T   T
  0.6297227661073990  0.7489735988312006  0.7963375816132516   T   T   T
  0.2868671298573994  0.9047747612078959  0.9325788823963164   T   T   T
  0.8135271088280477  0.2055962974308823  0.5509966753534773   T   T   T
  0.2110440031167450  0.3245971064276262  0.9292512431250209   T   T   T
  0.8554363095462663  0.7484402109625644  0.5948152768251238   T   T   T
  0.7425028258232482  0.8030245830790849  0.9428119318459400   T   T   T
  0.5657452962069943  0.3666761860591720  0.3258522792697944   T   T   T
  0.4580115373005330  0.6646657403990486  0.1882749015393273   T   T   T
  0.1739520954155798  0.4534594253234880  0.3234576960387326   T   T   T
  0.8727973168825802  0.5928364154299484  0.1906355907139579   T   T   T
  0.3885302338794996  0.1832138448306375  0.1927222956468838   T   T   T
  0.6843946752638932  0.8722424536605603  0.3125418386102621   T   T   T
  0.2453638211943033  0.8427163916067475  0.4501620451477542   T   T   T
  0.7897740847471112  0.2018395188540232  0.0665134863743866   T   T   T
  0.8891407353229214  0.7430691061680115  0.0642908077699736   T   T   T
  0.3393786214774621  0.2947263232777618  0.0643895469416968   T   T   T
  0.6129660832807358  0.6571025363385059  0.4591639126211455   T   T   T
