Sr Co O 
 1.0000000000000000
     4.7420105592134503   -2.7179290950201280   -0.7299191145748173
     4.7965042435395908    8.2431111099561569   -0.6337161504180334
    -1.4856808833782418    0.0892448942689157    9.5004393956866569
 Sr  Co  O  
   8   8  22
Selective dynamics
Direct
  0.4098325482546854  0.1539369126476381  0.8612902172119525   T   T   T
  0.0938518270259509  0.3482280708204850  0.1529052294821569   T   T   T
  0.2212707174345209  0.0752638851078747  0.3905282733286088   T   T   T
  0.2960683532568668  0.4388275371803729  0.6110421538034498   T   T   T
  0.9122422675236626  0.6459688154222205  0.8545182256781546   T   T   T
  0.5622659440347418  0.8551402821841464  0.1246787540121564   T   T   T
  0.6980389808477484  0.5482371257918675  0.3775542609510827   T   T   T
  0.7942186026660948  0.9421780669660086  0.6224972408378164   T   T   T
  0.0020580793627180 -0.0139911772651628  0.0074719462484701   T   T   T
  0.7589559667230314  0.2502277703614287  0.5021886267349129   T   T   T
  0.6398610735272191  0.1934174457387984  0.2315084085248230   T   T   T
  0.8576926336371599  0.3132278508491221  0.7649207137963009   T   T   T
  0.5019539996422179  0.4972088971280413  0.0022648830970234   T   T   T
  0.2683216096902433  0.7479947120595825  0.5035894866552139   T   T   T
  0.1349339233461249  0.6859670137882760  0.2215161779723320   T   T   T
  0.3628674771359096  0.8110039344946691  0.7681043725179519   T   T   T
  0.9306721452594282  0.2951779365773010  0.3697358446342060   T   T   T
  0.5833601447599873  0.2022557908763648  0.6368495156688095   T   T   T
  0.4696967840755461  0.2999529429645954  0.3613448167438004   T   T   T
  0.0419092752223015  0.2001273635515296  0.6453920549640279   T   T   T
  0.8052859313334283  0.4349207778329635  0.6041910936190440   T   T   T
  0.7066067492138572  0.0704767659274523  0.3853501204824381   T   T   T
  0.3357790125256053  0.0972115097888044  0.1180641135060882   T   T   T
  0.1355214999489315  0.3834652388885250  0.8971693676990657   T   T   T
  0.6119065225734581  0.3223537634556608  0.1017984661538406   T   T   T
  0.6265860033091156  0.4193408931675336  0.8508684175092326   T   T   T
  0.8645052225422035  0.0808830718711605  0.1439540971431796   T   T   T
  0.4002915326751120  0.8022379297617209  0.3589336947022984   T   T   T
  0.0765788407949739  0.7086891988179793  0.6298582495604151   T   T   T
  0.5465097990799852  0.7014991236909011  0.6464877390283044   T   T   T
  0.3005511897372973  0.9271257923805305  0.6093172175675846   T   T   T
  0.1768832385045069  0.5797761721275451  0.3838312402225481   T   T   T
  0.8254814425857541  0.6052913639283689  0.1417826576927149   T   T   T
  0.6582433489704073  0.9257956248107980  0.8729740772545030   T   T   T
  0.0761137601501490  0.8161134533101853  0.0945708182354008   T   T   T
  0.4025552119973801  0.6802940009887004  0.8971949308505515   T   T   T
  0.1400843325819982  0.9353776396533198  0.8540021656595135   T   T   T
  0.3559440846903389  0.5652964230682602  0.1470498696310454   T   T   T
