Sr Co O 
 1.0000000000000000
     4.7095848497920780   -2.7240460998189229   -0.7824863297350630
     4.9616429136430824    8.5754367058818293   -0.4949087478493892
    -1.4660308236125996    0.2463949993579050    9.5227806192998674
 Sr  Co  O  
   8   8  20
Selective dynamics
Direct
  0.3811692069994623  0.1304239072665176  0.8656873064137508   T   T   T
  0.0922998392717340  0.3621998135267597  0.1371019630185033   T   T   T
  0.2066826323877353  0.0270067511442604  0.3346400481915409   T   T   T
  0.3411536759978696  0.4859401961828277  0.6623448400442471   T   T   T
  0.9310137614053954  0.6650018003986532  0.8722004383121518   T   T   T
  0.5235596370986012  0.8318988687762463  0.0891839715914046   T   T   T
  0.6977218561888721  0.5743784725275761  0.3828105111568059   T   T   T
  0.7999648881818791  0.9195817692805415  0.6287231911621718   T   T   T
 -0.0429504167681685 -0.0012226523385802 -0.0072226628231724   T   T   T
  0.8800401797924439  0.2679595858579698  0.5098390957944551   T   T   T
  0.6620232533893402  0.1962670352631371  0.2121566968621571   T   T   T
  0.8758339381783657  0.3071563125193815  0.7928574604599355   T   T   T
  0.5130654526477153  0.4957060017962595  0.0092969159987708   T   T   T
  0.2686487405045943  0.7473683917777488  0.4863076752296155   T   T   T
  0.1242028569676161  0.6917730676416521  0.2182520265979312   T   T   T
  0.3573672509907729  0.8067632827910181  0.7479776799046961   T   T   T
  0.9898599847226056  0.2484577462540727  0.3493962745220738   T   T   T
 -0.0599744907508616  0.1635832445285122  0.6623186681501566   T   T   T
  0.7827795098865921  0.4132381582025981  0.6176631543965281   T   T   T
  0.3404225310494526  0.1270646745778069  0.1422666950659885   T   T   T
  0.2460541246834874  0.3749332383852937  0.8725828004020008   T   T   T
  0.5914391443254363  0.3705354750213151  0.1876597297559976   T   T   T
  0.8707507177527314  0.1796552254820541  0.9260782237275161   T   T   T
  0.7389898311291069  0.4405659142240609  0.8971648900198936   T   T   T
  0.7977411399844434  0.0413459160601869  0.1559939142370645   T   T   T
  0.4328076074538869  0.7953929460351139  0.3486983446915406   T   T   T
  0.0685477560023719  0.7076172263259042  0.6077883827260501   T   T   T
  0.5560472423849514  0.7036870923345472  0.6383319437000009   T   T   T
  0.2930882296751377  0.9265273391439637  0.5844265029630371   T   T   T
  0.1940393423378542  0.5771979922713661  0.3762725740823299   T   T   T
  0.7926921395154547  0.6254478898039333  0.1469242035626618   T   T   T
  0.6432621001074481  0.9088453832697456  0.8575305037026674   T   T   T
  0.0657230963066970  0.8400462654645974  0.1069460928877441   T   T   T
  0.4004801026762466  0.6670824343406414  0.8680319222453732   T   T   T
  0.1495243998685047  0.9132075759889778  0.8555747406331922   T   T   T
  0.2864281936539630  0.5808656646284676  0.1000931160721305   T   T   T
