Sr Co O 
 1.0000000000000000
     4.7025910944730143   -2.7255739786546438   -0.7862466689585362
    -4.7543615931388681   -2.7825703868742715    0.8741037766441296
     3.5310318660172357    0.3171917387948612  -19.1230528344799460
 Sr  Co  O  
   8   8  22
Selective dynamics
Direct
  0.2578012979128609  0.6987538601052362  0.5758624699066771   T   T   T
  0.7382428613928557  0.2876824015809830  0.9328984121866009   T   T   T
  0.1479043261507256  0.8800502959371687  0.8109435506736110   T   T   T
  0.8725666444300236  0.1278709799856929  0.7018172200543876   T   T   T
  0.2800169995382432  0.6964987178389985  0.0660705782897291   T   T   T
  0.6954161873515214  0.2936132370729561  0.4279108227105168   T   T   T
  0.1582460430246427  0.8926783638352347  0.2992109649044616   T   T   T
  0.8587225046099137  0.1075756106997470  0.1793716884215491   T   T   T
  0.0156634697393063 -0.0069522021372089 -0.0026514866891067   T   T   T
  0.5057148731824400  0.5011682816293713  0.7480289099110069   T   T   T
  0.4438341612105997  0.5877219252162716  0.8830651369280179   T   T   T
  0.5554662743686937  0.4102208651912747  0.6152222869492903   T   T   T
  0.0001530922253166 -0.0149142370524508  0.4918974515146770   T   T   T
  0.5435805018389515  0.5259236787870422  0.2516989125575718   T   T   T
  0.4227622397239126  0.6212807564154413  0.3895476544517764   T   T   T
  0.5710698615228171  0.3996395309222242  0.1170829362284526   T   T   T
  0.6264822699085657  0.3823130244771598  0.8060198260745730   T   T   T
  0.3739146356403619  0.6320773082206016  0.6950626691833249   T   T   T
  0.1663427228591693  0.3928899343808973  0.8168179048159530   T   T   T
  0.8432542354891542  0.5968830546932243  0.6790936939779642   T   T   T
  0.3852835273757274  0.1482256157070203  0.6771491913015530   T   T   T
  0.6311579385420168  0.8476685259506147  0.8160285825116171   T   T   T
  0.2694483163704121  0.7957328360606981  0.9477505132145573   T   T   T
  0.2651397792084162  0.3010214262607707  0.9357888235056931   T   T   T
  0.7794312453175303  0.6356614388327370  0.5507865513706728   T   T   T
  0.2238770667425145  0.1972782869670738  0.5638891241408902   T   T   T
  0.7832318294816326  0.7816322563890415  0.9272373210970749   T   T   T
  0.6156998944786781  0.4074632507594113  0.3200560243142336   T   T   T
  0.3906354865778797  0.6165711579892905  0.1953905503593340   T   T   T
  0.8669591330298717  0.6061595756995648  0.1804139634947452   T   T   T
  0.3862562839273093  0.1612133404753326  0.1917540297084013   T   T   T
  0.6465700048943988  0.8722975425071872  0.3190109846476026   T   T   T
  0.1560131000182771  0.7634066670292015  0.4129480441058164   T   T   T
  0.7434528375909947  0.1821096704567244  0.0572264308221622   T   T   T
  0.1851216892564278  0.3180485755512340  0.4357945144289356   T   T   T
  0.7485978644332513  0.6784157051603541  0.0636122571023415   T   T   T
  0.2369074094872916  0.1996145311546825  0.0722132453134710   T   T   T
  0.6520612844877408  0.8835042722065917  0.4703281992874912   T   T   T
