Sr Co O 
 1.0000000000000000
     4.8546620034294374   -2.6917312806870495   -0.6314378042951470
    -4.9117708205166544   -2.7783618155631618    0.6033067068862952
     2.5540134654216331   -0.0810898957355347  -19.0094428703638236
 Sr  Co  O  
   8   8  21
Selective dynamics
Direct
  0.2597232250367177  0.6344327821808513  0.5525969615312741   T   T   T
  0.7355759436993144  0.3648440264260595  0.9533695070733645   T   T   T
  0.1957611465278529  0.8997817723773750  0.8154372581076490   T   T   T
  0.8474373728191358  0.0604011356374924  0.6734642311498513   T   T   T
  0.2520826386276431  0.7591109697387053  0.0924560838775536   T   T   T
  0.6737465915114955  0.2338287381982783  0.4312510608220125   T   T   T
  0.0812170215083872  0.8500484987917198  0.3201390429168803   T   T   T
  0.8252521826208339  0.1464901667519841  0.2112331807371912   T   T   T
 -0.0333875724737200  0.0610903217417880  0.0242041425719138   T   T   T
  0.5009826912183925  0.4875905285206772  0.7545576099949195   T   T   T
  0.5493966772964057  0.7259022374079277  0.8872127713896961   T   T   T
  0.5352787580100379  0.3382010986100037  0.6149024851724889   T   T   T
 -0.0373468993278012 -0.0642605726836094  0.4986058099958894   T   T   T
  0.4686778687616961  0.4962643048702184  0.2531713658148950   T   T   T
  0.3727047572996093  0.5449888863640491  0.3846002606876278   T   T   T
  0.5683333218692467  0.4449693047776311  0.1215086607862790   T   T   T
  0.3548163748790865  0.5431649993462816  0.6871956650847729   T   T   T
  0.4071943527510968  0.1446800534803358  0.7038748295606915   T   T   T
  0.6665969570388339  0.8595715546255155  0.7917457805471392   T   T   T
  0.2491541413811990  0.7567981530158807  0.9286676635196455   T   T   T
  0.7111615389055128  0.1390338455290429  0.5682184521248761   T   T   T
  0.5862314634546403  0.4120489727504826  0.8361550291902602   T   T   T
  0.8081150083990516  0.6702338087888990  0.5782879962262800   T   T   T
  0.2359570069481745  0.1772811212621501  0.5592294157528421   T   T   T
  0.8855737059219467  0.9896914764207693  0.9278450292338176   T   T   T
  0.5465855720809980  0.3466397105271575  0.3186797098786518   T   T   T
  0.3991332067005284  0.6464089856941977  0.1862460108159587   T   T   T
  0.1206992919281295  0.3970129683038183  0.3137026599098586   T   T   T
  0.8173369811091766  0.5937116019041033  0.1938647246108685   T   T   T
  0.3251235643387374  0.1697996820450134  0.1868027925826691   T   T   T
  0.6056661284452599  0.8260146971201836  0.3194061937630311   T   T   T
  0.2090680608716739  0.7576626561640601  0.4386996097890080   T   T   T
  0.7338259995728784  0.2184391614640094  0.0681165076387149   T   T   T
  0.1222203063519073  0.2273451876571972  0.4339139687604168   T   T   T
  0.8295060305062910  0.7409265899633583  0.0632121229581153   T   T   T
  0.3196918655914524  0.3217723931963370  0.0470901387772039   T   T   T
  0.6599066170131433  0.6890782832639467  0.4473353906671951   T   T   T
