Sr Co O 
 1.0000000000000000
    -4.7233354460663657    2.7292660467601957    0.7963583359838891
    -4.7396550346408706   -8.2215442237255854    0.7237011289612875
     3.0950553986704832    2.8190880111335530    8.6781231643682659
 Sr  Co  O  
   8   8  20
Selective dynamics
Direct
  0.0000536135058506  0.2913513681108750  0.8558071407475009   T   T   T
  1.0121327100765241  0.7102423104707342  0.1466284919757147   T   T   T
  0.0014516831992030  0.1239795844356614  0.4077138915935051   T   T   T
  1.0184227384275486  0.8834400899316018  0.6200548794807328   T   T   T
  0.4839044303085074  0.7875837914942747  0.8668669855838713   T   T   T
  0.4985413392314323  0.2257295082626599  0.1557552104183320   T   T   T
  0.4990007741554944  0.6517778103556332  0.3824398690766123   T   T   T
  0.4961613925420342  0.3658912255456501  0.6151103835756804   T   T   T
  0.0161020814567092  0.0147146059294767  0.0066478836770930   T   T   T
  0.5077169584027978  0.0052922486565237  0.5105059488095669   T   T   T
  0.4847846453117269  0.9190122676009977  0.2416722051005171   T   T   T
  0.5155716508493423  0.0857248730449434  0.7800896458221730   T   T   T
  0.5028397694594097  0.5151141118010917  0.0062234110912590   T   T   T
 -0.0151139588392763  0.5092409246027192  0.5010930193012590   T   T   T
 -0.0173677542485237  0.4153922509734758  0.2282888258022343   T   T   T
  1.0008658722699004  0.5912610942853330  0.7735059052784206   T   T   T
  0.2593848587452153  0.8856297390051779  0.3930148641122013   T   T   T
  0.7419660931450155  0.1282694855537668  0.6466673122226668   T   T   T
  0.7381449303620825  0.8941731871578354  0.3668895794207708   T   T   T
  0.2853770521271288  0.1307487029206319  0.6493425899483484   T   T   T
  0.5333489259982130  0.8760654011936494  0.6268017629216992   T   T   T
  0.4851434182607365  0.1233054997051752  0.3782460013498201   T   T   T
  0.2662083099105097  0.0863183990265885  0.9033729957994726   T   T   T
  0.5536359251215417  0.7299539231769631  0.1156280775681614   T   T   T
  0.7444361676097723  0.0776523921285447  0.9250381765753938   T   T   T
  0.2350711151245091  0.9393570675730183  0.1138872595342004   T   T   T
  0.2264243564198854  0.6209898626966494  0.6252712265953509   T   T   T
  0.7198807023541988  0.4140786149750580  0.3949756396775163   T   T   T
  0.0003407262716953  0.3897855505447618  0.6137970022284344   T   T   T
  0.9958002513654782  0.6187928301071087  0.3784287000233492   T   T   T
  0.2837210508584287  0.4609004620821744  0.1465677930218044   T   T   T
  0.7108970579547454  0.5330822763407678  0.8414525395758153   T   T   T
  0.0122306889713364  0.2080913085986369  0.1802796236644857   T   T   T
  0.9610273565941481  0.8001346718911281  0.8664644838318351   T   T   T
  0.2416242041495021  0.5279116807390477  0.8927779022669680   T   T   T
  0.7564191824415483  0.4401607789476224  0.0839927403028652   T   T   T
