Sr Co O 
 1.0000000000000000
     4.7813635137744823   -2.8881018390368038   -0.5965523622209055
     4.5732048852456559    8.2321936033595051   -0.8281340452272428
    -1.4417795446992865   -0.2336460182045253    9.6572476644545571
 Sr  Co  O  
   8   8  21
Selective dynamics
Direct
  0.4544041549358236  0.1457455767413880  0.8701602027623189   T   T   T
  0.0618720958064441  0.3736708832470974  0.1156253909634896   T   T   T
  0.1620222002469455  0.0557653053520652  0.3513344352970374   T   T   T
  0.3397731440864306  0.4344846940609328  0.6312165916160556   T   T   T
  0.9526874280592844  0.6615812904874128  0.8908136789095698   T   T   T
  0.5513374283546771  0.8624645879963335  0.1290902325545138   T   T   T
  0.6299234148211655  0.5854220706971095  0.3467612600554443   T   T   T
  0.8128829562106229  0.9177822110042743  0.6222355245548530   T   T   T
 -0.0006471556521132  0.0057822460216652 -0.0074961426028200   T   T   T
  0.7134252891589570  0.2155787934658606  0.4908507046880460   T   T   T
  0.5854686382780696  0.2158145104683335  0.2084999708884856   T   T   T
  0.9179837524876815  0.2802147500518467  0.7716549968105783   T   T   T
  0.5057961705990811  0.5015993200382033 -0.0068547459508791   T   T   T
  0.2254437627794040  0.7355734378869089  0.4930701408910372   T   T   T
  0.0843298312365681  0.7165417143380274  0.2316556128304245   T   T   T
  0.4027426848387086  0.7823516449872666  0.7753712743054881   T   T   T
  1.0266439230501530  0.2078808548184770  0.5908496142289015   T   T   T
  0.5963346376890098  0.2045407737995250  0.6499351254650995   T   T   T
  0.4845619099535811  0.3152941561656480  0.3916113485017085   T   T   T
  0.7125431630237340  0.0870341545781550  0.3280575974592390   T   T   T
  0.2677130945339023  0.1240629830873701  0.1293385547812313   T   T   T
  0.2241068316542967  0.3794899222146787  0.8530406725139703   T   T   T
  0.5356701973017099  0.3812905641832597  0.1326234685705897   T   T   T
  0.9948012351081900  0.1112558336385874  0.8421726156806856   T   T   T
  0.7626962555075786  0.3959743107528443  0.8862986613234488   T   T   T
  0.7785588470213193  0.1417673300437322  0.0848419858650239   T   T   T
  0.3794505251132492  0.8148088417807652  0.3635932948829316   T   T   T
  0.0949502578377972  0.7069633385002477  0.6480092507788188   T   T   T
  0.9466130056973289  0.8118328009980256  0.3928074219486324   T   T   T
  0.5213593793996932  0.6978106015982894  0.6045591115145095   T   T   T
  0.1359370397868558  0.5642670067960832  0.3466652649737142   T   T   T
  0.7791747738654203  0.6288751771249815  0.1271861894864688   T   T   T
  0.7010593488368052  0.8926867671399520  0.8509524011159368   T   T   T
  0.0118959315543068  0.8758567020984517  0.1288999227136175   T   T   T
  0.4833687080863869  0.6188244701792219  0.8577961728134916   T   T   T
  0.2469524248432175  0.8891341855105656  0.9017819624381374   T   T   T
  0.2661614804254765  0.6259758803150419  0.1050907069730677   T   T   T
