Sr Co O 
 1.0000000000000000
     5.5819997146759794    0.0000007433319730   -0.0000000000000000
    -2.7910004825377857    4.6948939933950058    0.0850013225139219
    -0.0000000315339068    0.2368016780896426   13.4271536070709967
 Sr  Co  O  
   6   6  15
Selective dynamics
Direct
 -0.0286446769803035 -0.0572893539606070  0.7434870825590376   T   T   T
  0.0192890603856494  0.0385781207712988  0.2599230662093219   T   T   T
  0.6633948549287957  0.3267897098575920  0.9098362702246723   T   T   T
  0.3474284701051298  0.6948569402102599  0.1005361738266246   T   T   T
  0.3405853546338717  0.6811707092677436  0.4097146327692700   T   T   T
  0.6586159947590882  0.3172319895181769  0.5721126136659705   T   T   T
  0.0100476866196963  0.0200953732393926 -0.0042651886280828   T   T   T
 -0.0050990950029716 -0.0101981900059433  0.4990549376706357   T   T   T
  0.6689189278552111  0.3378378557104221  0.1512406466426760   T   T   T
  0.3253049161558935  0.6506098323117872  0.8511696277104729   T   T   T
  0.3044895948103456  0.6089791896206913  0.6622265739762103   T   T   T
  0.6761022287665197  0.3522044575330395  0.3340602261567958   T   T   T
  0.0168774677932309  0.4772818729582609  0.7673873745826563   T   T   T
  0.4604044051650300  0.4772818729582610  0.7673873745826563   T   T   T
  0.5127910603049213  0.0255821206098432  0.2546272883547746   T   T   T
  0.9797924367007232  0.5141471857212822  0.2367284020236010   T   T   T
  0.5343547490205577  0.5141471857212828  0.2367284020236011   T   T   T
  0.6625797521926630  0.8259780175443424  0.9202923732568644   T   T   T
  0.1633982653516788  0.8259780175443423  0.9202923732568644   T   T   T
  0.3545124457033413  0.2176578204881053  0.0662152970564990   T   T   T
  0.8631453747847637  0.2176578204881053  0.0662152970564990   T   T   T
  0.8470729461298028  0.6941458922596041  0.4125725347972458   T   T   T
  0.3566799976718889  0.2024748180442355  0.4156182984677508   T   T   T
  0.8457948203723470  0.2024748180442357  0.4156182984677508   T   T   T
  0.1372972844574829  0.2745945689149658  0.5892133857124768   T   T   T
  0.6416462264324692  0.8071186203374882  0.5960032851726479   T   T   T
  0.1654723939050186  0.8071186203374876  0.5960032851726479   T   T   T
