Sr Co O 
 1.0000000000000000
    -3.5837448262815745    0.0000000000000000    0.0000000000000000
     0.0000000000000000    4.3500677781126020    4.1463843147681825
     0.0000000000000000    8.2861667166506408  -12.0258768690953008
 Sr  Co  O  
   5   5  10
Selective dynamics
Direct
 -0.0000000000000000 -0.0524241125587605  0.0219816589706204   T   T   T
 -0.0000000000000000  0.3824291284875185  0.7986076939543435   T   T   T
 -0.0000000000000000  0.8826319470345758  0.6233828350718903   T   T   T
 -0.0000000000000000  0.2551341547530809  0.3967876273767530   T   T   T
 -0.0000000000000000  0.5364515201906949  0.2037366921855638   T   T   T
  0.4999999999999997  0.4880253101355644 -0.0011759697988876   T   T   T
  0.4999999999999997  0.8567411240353796  0.8103906802901349   T   T   T
  0.4999999999999997  0.4013514519094515  0.5950074756290420   T   T   T
  0.4999999999999997  0.7357254569391215  0.4071000446575625   T   T   T
  0.4999999999999997  0.0156274065842061  0.2135208140962226   T   T   T
 -0.0000000000000000  0.3422693470504885 -0.0228731104005185   T   T   T
  0.4999999999999997  0.0923119550292127  0.7461660942679881   T   T   T
  0.4999999999999997  0.7484168491735286  0.9215005905587037   T   T   T
  0.4999999999999997  0.5878242509216576  0.7209316421754004   T   T   T
 -0.0000000000000000  0.2540111638544476  0.5696562671262284   T   T   T
  0.4999999999999997  0.6746625202254267  0.5270316461278411   T   T   T
  0.4999999999999997  0.4704268420205162  0.3192374455175214   T   T   T
  0.4999999999999997  0.9821401510825063  0.3465827514557419   T   T   T
 -0.0000000000000000  0.1267360669306046  0.1857077930654404   T   T   T
  0.4999999999999997  0.7195074090927006  0.1167193662045892   T   T   T
