Sr Co O 
 1.0000000000000000
    -4.0006504340739495    3.7612640554747387    4.0197648360412801
    -4.0006504340739495   -3.7612640554747387    4.0197648360412810
     3.9669182157498732   -0.0000000000000003    8.0060944650984140
 Sr  Co  O  
   6   6  13
Selective dynamics
Direct
  0.0262469793695830  0.0141158629456384 -0.0267720665950857   T   T   T
  0.1430044498220233  0.1400265929218837  0.3461909889206705   T   T   T
  0.3312935146580580  0.3487848584511175  0.6841075619011012   T   T   T
  0.5141158629456370  0.5262469793695842 -0.0267720665950854   T   T   T
  0.6400265929218825  0.6430044498220241  0.3461909889206704   T   T   T
  0.8487848584511152  0.8312935146580589  0.6841075619011011   T   T   T
  0.1614748417670697  0.6614748417670722  0.3366243343492414   T   T   T
  0.3421706501664580  0.8421706501664608  0.6602928699110987   T   T   T
  0.4864524708307922 -0.0135475291692076  0.0208485129612320   T   T   T
  0.6627289609604279  0.1627289609604282  0.3438499724791808   T   T   T
  0.8538576228396113  0.3538576228396120  0.6445149994206442   T   T   T
  0.0048802826163822  0.5048802826163844  0.0022334248043592   T   T   T
  0.2976139487966603  0.7976139487966637  0.1600014125532059   T   T   T
  0.2287602016137941  0.7287602016137960  0.5012488367365684   T   T   T
  0.4964663016193929 -0.0035336983806076  0.4391386796669636   T   T   T
  0.0689403056174473  0.0877133638273656  0.6686459521419815   T   T   T
  0.4510390469397095  0.9510390469397123  0.8195028829516146   T   T   T
  0.2918126208780298  0.2713182750749944  0.0560214997516951   T   T   T
  0.8006701975855953  0.3006701975855962  0.1679494192529799   T   T   T
  0.7281941285517988  0.2281941285517992  0.5160092667907447   T   T   T
 -0.0041191364716287  0.4958808635283731  0.4299116972353588   T   T   T
  0.5877133638273657  0.5689403056174478  0.6686459521419829   T   T   T
  0.9241868780208801  0.4241868780208807  0.8227358427244086   T   T   T
  0.1757001936057834  0.6757001936057851  0.8454164956091784   T   T   T
  0.7713182750749923  0.7918126208780321  0.0560214997516949   T   T   T
