Sr Co O 
 1.0000000000000000
    -3.6685937588747208    0.0000000000000000    0.0000000000000000
     0.0000000000000000    4.0627884960791709    3.9754752895580290
     0.0000000000000000   16.4648595392635038  -16.1148901676732663
 Sr  Co  O  
   8   8  21
Selective dynamics
Direct
 -0.0000000000000000 -0.0887953829792569  0.0071742265801957   T   T   T
 -0.0000000000000000  0.4836095984699463  0.8662767781804879   T   T   T
 -0.0000000000000000 -0.0036340242959579  0.7399266769532922   T   T   T
 -0.0000000000000000  0.4978639112320505  0.6198434202327040   T   T   T
 -0.0000000000000000  0.0103715060982814  0.4998063651923203   T   T   T
 -0.0000000000000000  0.5233837633501929  0.3781644508997501   T   T   T
 -0.0000000000000000  0.0368037719716809  0.2619614555820393   T   T   T
 -0.0000000000000000  0.5320070530530582  0.1351482742971844   T   T   T
  0.4999999999999997  0.4591129950171176 -0.0084703269278304   T   T   T
  0.4999999999999997 -0.0591440755449702  0.8696822022856511   T   T   T
  0.4999999999999997  0.5047653828003098  0.7412715953183716   T   T   T
  0.4999999999999997 -0.0017774184583986  0.6197875994216733   T   T   T
  0.4999999999999997  0.5109167526576555  0.4992783656355664   T   T   T
  0.4999999999999997  0.0224399568216601  0.3795530311302207   T   T   T
  0.4999999999999997  0.5336240290647114  0.2565890219804390   T   T   T
  0.4999999999999997  0.0332656665495618  0.1389303000497950   T   T   T
 -0.0000000000000000  0.3358970124648687 -0.0256405397434514   T   T   T
  0.4999999999999997  0.7558575873010239  0.9341288799309089   T   T   T
  0.4999999999999997  0.7431673983134748  0.8094616442046936   T   T   T
  0.4999999999999997  0.2219775349588041  0.8384919744539294   T   T   T
 -0.0000000000000000  0.4739103745883957  0.7557994933958675   T   T   T
  0.4999999999999997  0.2497328500476625  0.6923815949842118   T   T   T
  0.4999999999999997  0.7502789092803175  0.6864677999072710   T   T   T
 -0.0000000000000000  0.0024846282234897  0.6259884333367255   T   T   T
  0.4999999999999997  0.7514581926772211  0.5625546874733484   T   T   T
  0.4999999999999997  0.2532949230350311  0.5643192243315869   T   T   T
 -0.0000000000000000  0.5094642148444246  0.5012139588759528   T   T   T
  0.4999999999999997  0.2671518781463738  0.4395965232662756   T   T   T
  0.4999999999999997  0.7668708877983672  0.4384752063843401   T   T   T
 -0.0000000000000000  0.0248957337262992  0.3770080493275322   T   T   T
  0.4999999999999997  0.7819529240295204  0.3139636980707177   T   T   T
  0.4999999999999997  0.2811335795967421  0.3145116256367071   T   T   T
 -0.0000000000000000  0.5348907022346564  0.2510591200522858   T   T   T
  0.4999999999999997  0.2899770381346670  0.1871671568999353   T   T   T
  0.4999999999999997  0.7850322820647970  0.1882998568587336   T   T   T
 -0.0000000000000000  0.0678617867556025  0.1074964411625837   T   T   T
  0.4999999999999997  0.6578974838833873  0.0573316768271981   T   T   T
