Sr Co O 
 1.0000000000000000
    -4.2590384696853159    0.0121975146090197   -3.8260576968619371
    -0.0358991171958032   -7.6924883108638742    0.0548926817978021
    -4.2084882850063696    3.7732782265940048    7.5857758028849744
 Sr  Co  O  
   6   6  14
Selective dynamics
Direct
 -0.0365623052706208  0.0101990406839912  0.0043277231450315   T   T   T
  0.7186234009581896  0.1782640155293830  0.3512449959655704   T   T   T
  0.3305090547956354  0.3161177952416857  0.6440177507883528   T   T   T
  0.0021425137717012  0.5053431108549401  0.0153472134117476   T   T   T
  0.7228017762332604  0.6814634100458324  0.3647253540322119   T   T   T
  0.3311278163992006  0.8114635979829639  0.6472968475856901   T   T   T
  0.4903588149176751  0.7323698018712786  0.0027671552107977   T   T   T
  0.2010172393797171  0.9288304863184821  0.3614334665812938   T   T   T
  0.8022969532256456  0.0818352653503988  0.6722669706010391   T   T   T
  0.5152135124628119  0.2888458899982667  0.0134553360328020   T   T   T
  0.1907243821069207  0.4041139523734933  0.3199973359144545   T   T   T
  0.8251931970334059  0.5638785215564246  0.6460798318303720   T   T   T
  0.7724019027599004  0.8214545149326904  0.1376586179736564   T   T   T
  0.5272604985987595  0.0005215977090962  0.4836335257084427   T   T   T
  0.1599287799042965  0.1270915240265716  0.3045856192400229   T   T   T
  0.0414117128696259  0.0121543711866604  0.5429949012561749   T   T   T
  0.8408204239774285  0.3733318847207144  0.7180810890371696   T   T   T
  0.6191758887972372  0.1308690887637924  0.8390837521738868   T   T   T
  0.7980158851627878  0.3465685969216469  0.1698434307875465   T   T   T
  0.4046229197823573  0.4774872510709581 -0.0617800521535794   T   T   T
  0.2667174151590493  0.2848976245610418  0.1059271799247275   T   T   T
  0.5200046964193226  0.4779093611707337  0.4872900148286745   T   T   T
  0.1965478889027563  0.6741128551146408  0.3078053943215874   T   T   T
  0.0424116410561458  0.4963526623976166  0.5072928941480518   T   T   T
  0.2477785243103094  0.7938807176111501  0.8911786439261765   T   T   T
  0.8027890193225635  0.8139765000907315  0.6901117723464547   T   T   T
