Sr Co O 
 1.0000000000000000
     3.6768032269400934    0.0000000000000000    0.0000000000000000
     0.0000000000000000    8.2533567314258054    0.0000000000000000
     0.0000000000000000    0.0000000000000000   11.9491972473835357
 Sr  Co  O  
   6   6  13
Selective dynamics
Direct
  0.0000000000000000 -0.0336139400716005 -0.0030621950248071   T   T   T
 -0.0000000000000000  0.0213111652532790  0.3331292198604298   T   T   T
 -0.0000000000000000  0.0008788354733143  0.6654751881072098   T   T   T
 -0.0000000000000000  0.5336139400716010 -0.0030621950248071   T   T   T
  0.0000000000000000  0.4786888347467210  0.3331292198604297   T   T   T
  0.0000000000000000  0.4991211645266855  0.6654751881072098   T   T   T
  0.5000000000000001  0.2499999999999998  0.1683778962308379   T   T   T
  0.5000000000000001  0.2499999999999998  0.4975725990258955   T   T   T
  0.5000000000000001  0.2499999999999998  0.8221885363908544   T   T   T
  0.5000000000000001  0.7500000000000002  0.1724770593665436   T   T   T
  0.5000000000000001  0.7500000000000002  0.5084680150035711   T   T   T
  0.5000000000000001  0.7500000000000002  0.8333713512216093   T   T   T
  0.5000000000000001  0.0349022512510475  0.1449154056797113   T   T   T
  0.5000000000000001  0.2499999999999998  0.3283262107386563   T   T   T
  0.0000000000000000  0.2499999999999998  0.4993436528865217   T   T   T
  0.5000000000000001 -0.0360446695097673  0.4778409360199523   T   T   T
  0.5000000000000001  0.2499999999999998  0.6640517903581350   T   T   T
  0.5000000000000001  0.0355411273416861  0.8490074283934108   T   T   T
  0.5000000000000001  0.7500000000000002  0.0047610689135870   T   T   T
  0.0000000000000000  0.7500000000000002  0.2333549290955613   T   T   T
  0.5000000000000001  0.4650977487489529  0.1449154056797113   T   T   T
  0.5000000000000001  0.5360446695097665  0.4778409360199525   T   T   T
  0.5000000000000001  0.7500000000000002  0.6665729586994061   T   T   T
  0.0000000000000000  0.7500000000000002  0.8331886624353023   T   T   T
  0.5000000000000001  0.4644588726583141  0.8490074283934108   T   T   T
