Sr Co O 
 1.0000000000000000
     3.9182015414103106   -0.0349931307756774    3.8798234793289468
     3.9502053231988619   -3.9782618107784522   -3.8761570934696516
     3.8736839575383013    7.9095223683877887   -3.9061869543791219
 Sr  Co  O  
   6   6  12
Selective dynamics
Direct
 -0.0025883908961494  0.0137975456190357  0.0164690199554611   T   T   T
  0.5057602890361352  0.7239151062478109  0.8321255971493381   T   T   T
 -0.0223222602788483  0.3247690109679763  0.6609036520040029   T   T   T
  0.5167956429878784 -0.0329626052126073  0.4877869480470694   T   T   T
 -0.0004145564763188  0.6472943625552899  0.3225445092095519   T   T   T
  0.5068234057054241  0.3132859280948105  0.1871246522720008   T   T   T
  0.4916592540907540  0.8289826750955136  0.1559933674723637   T   T   T
 -0.0139494976795944  0.4912358508609422  0.0107806248874895   T   T   T
  0.5210399319591357  0.1639666142662632  0.8451811232909275   T   T   T
 -0.0056105968055422  0.8733039557975398  0.6493418321266028   T   T   T
  0.5148345635446572  0.5011931815092182  0.4848284919219769   T   T   T
 -0.0072435080500370  0.1652009914727303  0.3489768619503924   T   T   T
  0.2107898289546065  0.6844827002625413  0.0476942435471421   T   T   T
  0.4513915619222517  0.0295183728028696  0.0206533756611966   T   T   T
  0.7227857816186285  0.4046118053460225  0.9019239989192936   T   T   T
  0.2864573827456413  0.0308869059793452  0.7256045562406954   T   T   T
  0.7986615730978556 -0.0071613305350145  0.7888076656478944   T   T   T
  0.7297805365985016  0.6649545819171492  0.6047332296942109   T   T   T
  0.0801629449808174 -0.0667706375029194  0.4648679591800494   T   T   T
  0.2146426563711974  0.3734706014517035  0.4527490236256728   T   T   T
  0.5087342259402482  0.6463827373561699  0.2994797548152107   T   T   T
  0.7175500924497799  0.2721172140843070  0.4579554124029328   T   T   T
  0.7530956018368529 -0.0320753477720224  0.2334885321185579   T   T   T
  0.0211633540307032  0.3189331093621204  0.1666521907722113   T   T   T
