Sr Co O 
 1.0000000000000000
    -4.0663228671697178    4.0663228671697338    0.0000000000000003
     0.0297851541872429    4.0961080213569732    7.7888638804139596
     4.1491190719828772    8.2154419391526314    0.0018960289297363
 Sr  Co  O  
   6   6  13
Selective dynamics
Direct
  0.0001513887899529  0.0280456893939918 -0.0283484669738975   T   T   T
  0.8588289242655224  0.5225400052590042  0.7598021462099510   T   T   T
  0.6390588689833195  0.0394489084965128  0.6824333535368474   T   T   T
  0.5036785828974218  0.5080151584594311  0.4846276757457273   T   T   T
  0.3128504179695578 -0.0182606965153389  0.3925598605762241   T   T   T
  0.1571114042193004  0.4772819120131226  0.2084952795482785   T   T   T
  0.7501665765385608  0.1827437073142276  0.3169231396086505   T   T   T
  0.5330024107870293  0.8131469629605212  0.1208482154654176   T   T   T
  0.4136873170700909  0.2873968111390861  0.8852285547207317   T   T   T
  0.2652892059230758  0.7346557178696099  0.7347658702842378   T   T   T
  0.0810052342080388  0.2480994376301914  0.5898900939537329   T   T   T
  0.9301031791042730  0.7470292710458694  0.3927643707455840   T   T   T
  0.8722894039473628 -0.0045917631328254  0.2600129552381004   T   T   T
  0.4945058814307463  0.0292001040490520 -0.0182118669105451   T   T   T
  0.7464594249229747  0.2703031518221124  0.7508650388729750   T   T   T
  0.2323723843819359  0.2703031518221125  0.7508650388729743   T   T   T
  0.2906201511420905  0.5104561403844983  0.9083035573313234   T   T   T
  0.5862612403890172  0.7493396157466647  0.5734832648509609   T   T   T
  0.0909158790133598  0.7493396157466647  0.5734832648509606   T   T   T
  0.1563203227294860 -0.0282142868233210  0.7155736413643516   T   T   T
  0.4185598992388416  0.2402458378604486  0.4142332616502373   T   T   T
  0.9269610012504738  0.2402458378604486  0.4142332616502358   T   T   T
  0.0048328123330998  0.5007823217453924  0.4895520535884084   T   T   T
  0.2870707487687581  0.7012237657588375  0.2304749044848483   T   T   T
  0.7812305809875532  0.7012237657588375  0.2304749044848482   T   T   T
