Sr Co O 
 1.0000000000000000
    -4.0181916331515604    3.8698802469318410    3.8427283480463692
    -4.0181916331515604   -3.8698802469318410    3.8427283480463696
     4.1073391650373399   -0.0000000000000003    7.7741458219030148
 Sr  Co  O  
   6   6  13
Selective dynamics
Direct
  0.0145281958253481  0.0150263809606747  0.0136355604347969   T   T   T
  0.1713512480907038  0.1840711760011498  0.3209221967421057   T   T   T
  0.3065583537851093  0.3184959988905797  0.6718210942541214   T   T   T
  0.5150263809606753  0.5145281958253476  0.0136355604347958   T   T   T
  0.6840711760011503  0.6713512480907025  0.3209221967421055   T   T   T
  0.8184959988905799  0.8065583537851070  0.6718210942541210   T   T   T
  0.1677445412165566  0.6677445412165555  0.3353018552414080   T   T   T
  0.3151801251753363  0.8151801251753348  0.6910014477340661   T   T   T
  0.4926312160725830 -0.0073687839274169  0.0120738098045932   T   T   T
  0.6936194901511147  0.1936194901511135  0.3472607842580409   T   T   T
  0.8348729283700619  0.3348729283700608  0.6431420605657920   T   T   T
  0.0013982849420880  0.5013982849420874 -0.0151080259687999   T   T   T
  0.3354270685904629  0.8354270685904611  0.2036512995145284   T   T   T
  0.9003140528513660  0.9114393032492668  0.3168533616279547   T   T   T
  0.1291546002588540  0.0625896419264903  0.6115366645803956   T   T   T
  0.4111859767822634  0.9111859767822620  0.8414449156648371   T   T   T
  0.3034007898281249  0.2753657655091415  0.0125079852830207   T   T   T
  0.8564759475908910  0.3564759475908900  0.1794519507347280   T   T   T
  0.4114393032492677  0.4003140528513642  0.3168533616279530   T   T   T
  0.6868904675250030  0.1868904675250020  0.5681336197293512   T   T   T
  0.0106545077496335  0.5106545077496325  0.4847320197251292   T   T   T
  0.5625896419264902  0.6291546002588523  0.6115366645803939   T   T   T
  0.8722118452112463  0.3722118452112453  0.8482920159629379   T   T   T
  0.1460786652401091  0.6460786652401078  0.7994019410803805   T   T   T
  0.7753657655091415  0.8034007898281225  0.0125079852830208   T   T   T
