Sr Co O 
 1.0000000000000000
     3.7422781212956240    0.0000000000000000    0.0000000000000000
     0.0000000000000000    8.1093718173814793    0.0000000000000000
     0.0000000000000000    0.0000000000000000   11.9969075856134015
 Sr  Co  O  
   6   6  14
Selective dynamics
Direct
 -0.0000000000000000 -0.0326346629264440 -0.0010230107043903   T   T   T
 -0.0000000000000000  0.0088023306535633  0.3439655383780586   T   T   T
  0.0000000000000000 -0.0136324164444490  0.6517233797981111   T   T   T
  0.0000000000000000  0.5326346629264438 -0.0010230107043903   T   T   T
  0.0000000000000000  0.4911976693464368  0.3439655383780585   T   T   T
  0.0000000000000000  0.5136324164444495  0.6517233797981111   T   T   T
  0.4999999999999999  0.2499999999999999  0.1763669380234189   T   T   T
  0.4999999999999999  0.2499999999999999  0.5003245435945841   T   T   T
  0.4999999999999999  0.2499999999999999  0.8175408947137504   T   T   T
  0.4999999999999999  0.7499999999999996  0.1658808491201016   T   T   T
  0.4999999999999999  0.7499999999999996  0.5019287702112719   T   T   T
  0.4999999999999999  0.7499999999999996  0.8327145861146142   T   T   T
  0.4999999999999999  0.0341460520950537  0.1458815599301189   T   T   T
  0.4999999999999999  0.2499999999999999  0.3313539202781881   T   T   T
  0.0000000000000000  0.2499999999999999  0.5018680245094237   T   T   T
  0.4999999999999999 -0.0189397605043041  0.4911965995024906   T   T   T
  0.4999999999999999  0.2499999999999999  0.6676187909483779   T   T   T
  0.4999999999999999  0.0410960287131314  0.8576219516353617   T   T   T
  0.4999999999999999  0.7499999999999996 -0.0008011501839203   T   T   T
  0.0000000000000000  0.7499999999999996  0.2096093333426056   T   T   T
  0.4999999999999999  0.4658539479049463  0.1458815599301189   T   T   T
  0.0000000000000000  0.7499999999999996  0.4755099178077119   T   T   T
  0.4999999999999999  0.5189397605043032  0.4911965995024906   T   T   T
  0.4999999999999999  0.7499999999999996  0.6727875364367865   T   T   T
  0.0000000000000000  0.7499999999999996  0.8352316715569756   T   T   T
  0.4999999999999999  0.4589039712868684  0.8576219516353617   T   T   T
