Sr Co O 
 1.0000000000000000
     3.8317614621997542    0.0000000000000000   -0.0000000000000000
    -0.0000000000000000    3.8317614621997560   -0.0000000000000000
    -0.0000000000000000   -0.0000000000000001   31.7298749935431417
 Sr  Co  O  
   8   8  20
Selective dynamics
Direct
 -0.0000000000000000  0.0000000000000000  0.0000000000000000   T   T   T
 -0.0000000000000000  0.0000000000000000  0.1262938260133259   T   T   T
 -0.0000000000000000 -0.0000000000000000  0.2460218252162414   T   T   T
  0.0000000000000000  0.0000000000000000  0.3820961687471158   T   T   T
  0.0000000000000000 -0.0000000000000000  0.5000000000000006   T   T   T
  0.0000000000000000  0.0000000000000000  0.6179038312528854   T   T   T
  0.0000000000000000 -0.0000000000000000  0.7539781747837598   T   T   T
  0.0000000000000000  0.0000000000000000  0.8737061739866750   T   T   T
  0.5000000000000003  0.5000000000000002  0.0656154769355559   T   T   T
  0.5000000000000003  0.5000000000000002  0.1881432561062750   T   T   T
  0.5000000000000003  0.5000000000000002  0.3145458933630411   T   T   T
  0.5000000000000003  0.5000000000000002  0.4379565108119023   T   T   T
  0.5000000000000003  0.5000000000000002  0.5620434891880991   T   T   T
  0.5000000000000003  0.5000000000000001  0.6854541066369595   T   T   T
  0.5000000000000003  0.5000000000000000  0.8118567438937265   T   T   T
  0.5000000000000003  0.5000000000000000  0.9343845230644455   T   T   T
 -0.0000000000000000  0.5000000000000002  0.0536770724091418   T   T   T
  0.5000000000000003  0.0000000000000000  0.0537664127099836   T   T   T
  0.5000000000000003  0.5000000000000002  0.1231233762007698   T   T   T
  0.0000000000000000  0.5000000000000002  0.1882657609183624   T   T   T
  0.5000000000000003 -0.0000000000000000  0.1889094380810850   T   T   T
  0.5000000000000003  0.5000000000000002  0.2575098618322786   T   T   T
  0.0000000000000000  0.5000000000000002  0.3162475859467752   T   T   T
  0.5000000000000003  0.5000000000000002  0.3727007251907696   T   T   T
 -0.0000000000000000  0.5000000000000002  0.4461445144501842   T   T   T
  0.5000000000000003 -0.0000000000000000  0.4444647723871933   T   T   T
  0.0000000000000000  0.5000000000000002  0.5555352276128079   T   T   T
  0.5000000000000003 -0.0000000000000000  0.5538554855498171   T   T   T
  0.5000000000000003  0.5000000000000002  0.6272992748092314   T   T   T
  0.5000000000000003  0.0000000000000000  0.6837524140532260   T   T   T
  0.5000000000000003  0.5000000000000001  0.7424901381677225   T   T   T
  0.0000000000000000  0.5000000000000000  0.8110905619189157   T   T   T
  0.5000000000000003 -0.0000000000000000  0.8117342390816382   T   T   T
  0.5000000000000003  0.5000000000000000  0.8768766237992318   T   T   T
  0.0000000000000000  0.5000000000000000  0.9462335872900183   T   T   T
  0.5000000000000003 -0.0000000000000000  0.9463229275908596   T   T   T
