Sr Co O 
 1.0000000000000000
    -3.6382952308585117    4.6198330374500358    3.6607516852669995
    -3.6382952308585117   -4.6198330374500358    3.6607516852670008
     3.6710758515591397   -0.0000000000000005    7.3551984078417796
 Sr  Co  O  
   6   6  12
Selective dynamics
Direct
  0.0147969425124453  0.0048859597852113 -0.0056033653630881   T   T   T
  0.1757504395300240  0.1765053698232640  0.3272190700099565   T   T   T
  0.3380149996749621  0.3365483469945555  0.6602708404241339   T   T   T
  0.5048859597852152  0.5147969425124373 -0.0056033653630902   T   T   T
  0.6765053698232750  0.6757504395300156  0.3272190700099585   T   T   T
  0.8365483469945711  0.8380149996749504  0.6602708404241387   T   T   T
  0.1720282355240505  0.6720282355240567  0.2862252162905183   T   T   T
  0.3070210505172404  0.8070210505172356  0.6731106791937524   T   T   T
  0.5160188771495113  0.0160188771494970  0.0334792152844434   T   T   T
  0.6924498268720938  0.1924498268720674  0.3272614044560532   T   T   T
  0.8035422994230306  0.3035422994230051  0.6995221428535823   T   T   T
  0.0025445806461795  0.5025445806461858 -0.0185606436431236   T   T   T
  0.1662759635435076  0.6662759635435128  0.0521740740082925   T   T   T
  0.9806007150155448  0.8729598194948112  0.3360233309452235   T   T   T
  0.1507945997559310  0.0496402730315956  0.6558949026816768   T   T   T
  0.3139607681778481  0.2030061980721153 -0.0150878089018085   T   T   T
  0.5297229279156700  0.0297229279156577  0.2698196214395590   T   T   T
  0.8831842517937518  0.3831842517937234  0.2179404340154891   T   T   T
  0.3729598194948301  0.4806007150155324  0.3360233309452293   T   T   T
  0.6917342943505360  0.1917342943505112  0.5683852733402214   T   T   T
  0.5496402730316043  0.6507945997559231  0.6558949026816810   T   T   T
  0.8399477830027738  0.3399477830027493  0.8989721108322749   T   T   T
  0.1113985841754035  0.6113985841754016  0.7409033369603595   T   T   T
  0.7030061980721259  0.8139607681778357 -0.0150878089018085   T   T   T
