Sr Co O 
 1.0000000000000000
    -3.8980537281867016    4.2091456250265837    0.0193921979584495
    -0.1432767168044197    4.1090149969649170    7.7270198301254585
     3.7388552176156593    8.2635062748574839   -0.1010850903815469
 Sr  Co  O  
   6   6  13
Selective dynamics
Direct
  0.0098262189513528  0.0171775828420004 -0.0416561937556940   T   T   T
  0.8447641824873398  0.5034967194872909  0.8309919309804380   T   T   T
  0.6692010533192029 -0.0061700786236340  0.6743519602401875   T   T   T
  0.5319362716243595  0.4632798673456794  0.5175016334472168   T   T   T
  0.3053143240210425 -0.0094454138260091  0.3345211861087947   T   T   T
  0.1672419415648816  0.5136924672935489  0.1370210057394170   T   T   T
  0.7099413767525027  0.2888178760734509  0.2286052181835659   T   T   T
  0.5056510611991285  0.7635322078945058  0.0757282916644154   T   T   T
  0.4458005854600955  0.2456637364303115  0.9105314096006000   T   T   T
  0.2991731670893846  0.7382904734475493  0.7134270482740420   T   T   T
  0.1141888828808312  0.2460878063457431  0.5919603551174636   T   T   T
  0.9614275290016452  0.7084806087336778  0.4330480174637817   T   T   T
  0.5438384087514833  0.2427028192373134  0.1197675176485022   T   T   T
  0.7174564647205008  0.5333215272241111  0.1437047388771656   T   T   T
  0.4095826250464721  0.7508123619646284  0.8915940310441640   T   T   T
  0.5874489134811295 -0.0149748262748356 -0.0148614613534292   T   T   T
  0.7763739468069766  0.2878614006740754  0.7362489375755837   T   T   T
  0.2783211540778030  0.2354292239765439  0.7560844833089596   T   T   T
  0.2754482698119655  0.4926850512983397  0.8544171400658167   T   T   T
  0.0389548433804667  0.7504419919095782  0.6025132102298558   T   T   T
  0.2249215066636056  0.0154048505202428  0.6213599299507230   T   T   T
  0.8604920917682737  0.2035440801613531  0.3969701108185738   T   T   T
  0.1409974317425374  0.4627274734313129  0.4366306343808755   T   T   T
  0.1488847187067173  0.8320020965135208  0.2178417868664844   T   T   T
  0.5994795042050901  0.7351381003156860  0.4983637255255110   T   T   T
