Sr Co O 
 1.0000000000000000
     3.8116582116653528    0.0000000000000000    0.0000000000000000
     0.0000000000000000    3.8021945849396448    0.0000000000000000
     0.0000000000000000    0.0000000000000000   32.3116262163623205
 Sr  Co  O  
   8   8  21
Selective dynamics
Direct
  0.0000000000000000  0.0000000000000000  0.0002699023598726   T   T   T
  0.0000000000000000  0.0000000000000000  0.1177785726514775   T   T   T
  0.0000000000000000  0.0000000000000000  0.2521702140926824   T   T   T
  0.0000000000000000  0.0000000000000000  0.3683241508238499   T   T   T
  0.0000000000000000  0.0000000000000000  0.5052932278162100   T   T   T
  0.0000000000000000  0.0000000000000000  0.6284130847009000   T   T   T
  0.0000000000000000  0.0000000000000000  0.7517648541628839   T   T   T
  0.0000000000000000  0.0000000000000000  0.8741466431801858   T   T   T
  0.4999999999999993  0.5000000000000002  0.0632762264744624   T   T   T
  0.4999999999999993  0.5000000000000002  0.1849653250969548   T   T   T
  0.4999999999999993  0.5000000000000002  0.3102193072335366   T   T   T
  0.4999999999999993  0.5000000000000002  0.4348592961464145   T   T   T
  0.4999999999999993  0.5000000000000002  0.5676832005309508   T   T   T
  0.4999999999999993  0.5000000000000002  0.6903685141825102   T   T   T
  0.4999999999999993  0.5000000000000002  0.8131464202867534   T   T   T
  0.4999999999999993  0.5000000000000002  0.9362018016331481   T   T   T
  0.0000000000000000  0.5000000000000002  0.0557432747753016   T   T   T
  0.4999999999999993  0.0000000000000000  0.0568290182720765   T   T   T
  0.4999999999999993  0.5000000000000002  0.1278130043977400   T   T   T
  0.0000000000000000  0.5000000000000002  0.1837558581909284   T   T   T
  0.4999999999999993  0.5000000000000002  0.2411396145150765   T   T   T
  0.0000000000000000  0.5000000000000002  0.3104410272052607   T   T   T
  0.4999999999999993  0.0000000000000000  0.3090795986915262   T   T   T
  0.4999999999999993  0.5000000000000002  0.3779980935565103   T   T   T
  0.4999999999999993  0.0000000000000000  0.4334999733530535   T   T   T
  0.4999999999999993  0.5000000000000002  0.4899632043013672   T   T   T
  0.0000000000000000  0.5000000000000002  0.5598846519353009   T   T   T
  0.4999999999999993  0.0000000000000000  0.5603059537887615   T   T   T
  0.4999999999999993  0.5000000000000002  0.6251820802102341   T   T   T
  0.0000000000000000  0.5000000000000002  0.6888744927297981   T   T   T
  0.4999999999999993  0.0000000000000000  0.6889238610197607   T   T   T
  0.4999999999999993  0.5000000000000002  0.7531110144991457   T   T   T
  0.0000000000000000  0.5000000000000002  0.8173141457560656   T   T   T
  0.4999999999999993  0.0000000000000000  0.8173300207522164   T   T   T
  0.4999999999999993  0.5000000000000002  0.8803438790570851   T   T   T
  0.0000000000000000  0.5000000000000002  0.9490217260169942   T   T   T
  0.4999999999999993  0.0000000000000000  0.9495648884135647   T   T   T
