Sr Co O 
 1.0000000000000000
    -4.1198362918934182    4.0413921221538907    0.0143658114428252
     4.0880044728477216    4.0127996534115420    0.0688576837645049
    -0.0727631471035225   -4.1511556677626951  -11.5748892358858821
 Sr  Co  O  
   6   6  14
Selective dynamics
Direct
 -0.0000000000000000  0.0000000000000000 -0.0000000000000000   T   T   T
  0.8466563349319551  0.8112706244424458  0.6527700670794483   T   T   T
  0.6788629855891571  0.6600400253250779  0.3484481561837849   T   T   T
  0.4999999999999975  0.4999999999999974 -0.0000000000000000   T   T   T
  0.3211370144108405  0.3399599746749196  0.6515518438162143   T   T   T
  0.1533436650680427  0.1887293755575519  0.3472299329205517   T   T   T
  0.8762655159113965  0.3997379305010434  0.8028020802408203   T   T   T
  0.7544820198210559  0.2455231740466127  0.4921274955096569   T   T   T
  0.5110907590189887  0.0719093987823986  0.1642096396419796   T   T   T
  0.4889092409810094  0.9280906012175989  0.8357903603580205   T   T   T
  0.2455179801789408  0.7544768259533851  0.5078725044903416   T   T   T
  0.1237344840886019  0.6002620694989526  0.1971979197591802   T   T   T
  0.7341403482856405  0.2155012529412038  0.8746353178828917   T   T   T
  0.7389053192799719  0.2291784762084923  0.6435707935876228   T   T   T
  0.0000000000000011  0.0000000000000011  0.4999999999999994   T   T   T
  0.6845161536552680  0.1253568956363078  0.3190411809585174   T   T   T
  0.2658596517143567  0.7844987470587926  0.1253646821171061   T   T   T
  0.4999999999999979 -0.0000000000000012 -0.0000000000000000   T   T   T
  0.7345434947392840  0.6966301343425639  0.8291380100454693   T   T   T
  0.1858810779772838  0.4869592746010027  0.8276150698129521   T   T   T
  0.3154838463447316  0.8746431043636903  0.6809588190414831   T   T   T
  0.4999999999999988  0.4999999999999987  0.4999999999999998   T   T   T
  0.0000000000000002  0.5000000000000003  0.4999999999999996   T   T   T
  0.2610946807200238  0.7708215237915050  0.3564292064123760   T   T   T
  0.2654565052607141  0.3033698656574338  0.1708619899545306   T   T   T
  0.8141189220227153  0.5130407253989960  0.1723849301870487   T   T   T
