Sr Co O 
 1.0000000000000000
    -3.9734812916462583    0.0745939400787655   -4.0500983853128352
     0.1134467673274845   -8.3402777680449312    0.0402153897246969
    -3.6922846319937177    4.1915849617566678    7.7358738756549608
 Sr  Co  O  
   6   6  12
Selective dynamics
Direct
 -0.0314460143609785  0.0000363402863608 -0.0483233538681486   T   T   T
  0.6752004042003331  0.2143982612738815  0.3515080665671212   T   T   T
  0.3398237439112982  0.3479141319424677  0.6593596413108371   T   T   T
  0.0221880803225182  0.5011480685292422  0.0095911262011051   T   T   T
  0.6713337490483129  0.6297040294222717  0.3565447865824247   T   T   T
  0.3245876010341742  0.7885285575993198  0.6505588725903423   T   T   T
  0.4963790678536488  0.6988276603112995 -0.0240548112539206   T   T   T
  0.1144347869766612  0.8960084471510927  0.3735256957983105   T   T   T
  0.8073589908729102  0.0955157000827667  0.6541570766690883   T   T   T
  0.5384261638768690  0.2678833091068047 -0.0006270574929556   T   T   T
  0.1590050403038933  0.4012988209246674  0.3145819553355518   T   T   T
  0.8455432288429373  0.5775237219122926  0.6894694981558209   T   T   T
  0.6553940855071774  0.7237388099268741  0.8428660247218803   T   T   T
 -0.0185403545399171  0.0767343581217364  0.4813842245639084   T   T   T
  0.8020862976630877  0.3371582319490356  0.6973524393488343   T   T   T
  0.5827145792060658  0.1147005534076175  0.7872685501752694   T   T   T
  0.8380837000364282  0.2503729936321742  0.1608213142901642   T   T   T
  0.6034020920337728  0.5345662038526462  0.0532448584935525   T   T   T
  0.2967978091297369  0.2898272030497412  0.1124935919414393   T   T   T
  0.4857114003407299  0.4720787143108482  0.4864982548811095   T   T   T
  0.2250431065419420  0.6895440073166693  0.3245600520009496   T   T   T
  0.0101001715396491  0.4945216899187749  0.5107399718735059   T   T   T
  0.1647773768757110  0.7187096468367031  0.9089610635121983   T   T   T
  0.8915949559570899  0.8792606191332615  0.6475182063903698   T   T   T
