Sr Co O 
 1.0000000000000000
    -3.6921565307540298    0.0000000000000000    0.0000000000000000
     0.0000000000000000    3.9668293496596609    4.0655577103859235
     0.0000000000000000   11.9084964863891578  -16.2713565658129973
 Sr  Co  O  
   7   7  18
Selective dynamics
Direct
 -0.0000000000000000 -0.0490173801487920 -0.0024461138242627   T   T   T
 -0.0000000000000000  0.3744819739046079  0.8679454967305696   T   T   T
 -0.0000000000000000  0.8255978555003657  0.7265949128350259   T   T   T
 -0.0000000000000000  0.3646177087243744  0.5670171178824995   T   T   T
 -0.0000000000000000  0.7276324530340941  0.4144774216412855   T   T   T
 -0.0000000000000000  0.1591494158239067  0.2862976428925944   T   T   T
 -0.0000000000000000  0.5897366050210322  0.1463962795833174   T   T   T
  0.4999999999999998  0.4792790419136374  0.0010482300507812   T   T   T
  0.4999999999999998  0.8844944524551988  0.8614939465779415   T   T   T
  0.4999999999999998  0.3178456328292542  0.7251974137394938   T   T   T
  0.4999999999999998  0.8228174089368315  0.5639893613755811   T   T   T
  0.4999999999999998  0.2444651763304364  0.4241863057379942   T   T   T
  0.4999999999999998  0.6555076036766335  0.2827253207884674   T   T   T
  0.4999999999999998  0.0644541996003063  0.1453334971845023   T   T   T
 -0.0000000000000000  0.4409268293948174  0.0169778702304301   T   T   T
  0.4999999999999998  0.1713838323963819  0.9397863828675526   T   T   T
  0.4999999999999998  0.6586766336883310  0.9284142147050761   T   T   T
 -0.0000000000000000  0.8862196843648628  0.8595813316275119   T   T   T
  0.4999999999999998  0.5994195161685248  0.7823359087983919   T   T   T
  0.4999999999999998  0.1023323961126429  0.7868295095552664   T   T   T
 -0.0000000000000000  0.2665540314962574  0.6878277669714090   T   T   T
  0.4999999999999998  0.6852420150492492  0.6359570998425198   T   T   T
  0.4999999999999998  0.5778035757685421  0.4961233250153418   T   T   T
  0.4999999999999998  0.0864017321208719  0.5301687552724268   T   T   T
 -0.0000000000000000  0.2442297766650779  0.4344394603437090   T   T   T
  0.4999999999999998  0.9434358659078668  0.3614016302441800   T   T   T
  0.4999999999999998  0.4356506436290072  0.3506025299729372   T   T   T
 -0.0000000000000000  0.6563487422815358  0.2812587922024565   T   T   T
  0.4999999999999998  0.3665973010657319  0.2000134211502392   T   T   T
  0.4999999999999998  0.8844240922611905  0.2147076262840423   T   T   T
 -0.0000000000000000  0.1103424582095657  0.1242376101103550   T   T   T
  0.4999999999999998  0.7800913891643004  0.0733656263573100   T   T   T
