Sr Co O 
 1.0000000000000000
     3.9666637111783016    0.0000000000000000    0.0000000000000000
     0.0000000000000000    3.8871928194275087    7.6183515111349944
     0.0000000000000000  -11.6828583002502420    3.8200543574040839
 Sr  Co  O  
   7   7  20
Selective dynamics
Direct
 -0.0000000000000000 -0.0030781899016677  0.0060500928543849   T   T   T
  0.0000000000000000  0.4334750891406026  0.1442875309429911   T   T   T
 -0.0000000000000000  0.8610185924415074  0.2917213403278853   T   T   T
  0.0000000000000000  0.2818385504156371  0.4225643739578293   T   T   T
 -0.0000000000000000  0.7093820537165427  0.5699981833427239   T   T   T
  0.0000000000000000  0.1459353327588107  0.7082356214313288   T   T   T
  0.0000000000000000  0.5714285714285727  0.8571428571428571   T   T   T
  0.4999999999999997  0.2973132432787515  0.9309445902759448   T   T   T
  0.4999999999999997  0.7208964205073897  0.0768313910056822   T   T   T
  0.4999999999999997  0.1399936668225421  0.2134134158153918   T   T   T
  0.4999999999999997  0.5714285714285730  0.3571428571428574   T   T   T
  0.4999999999999997  0.0028634760346008  0.5008722984703226   T   T   T
  0.4999999999999997  0.4219607223497544  0.6374543232800325   T   T   T
  0.4999999999999997  0.8455438995783942  0.7833411240097697   T   T   T
  0.0000000000000000  0.2673239268752198  0.9199339390277894   T   T   T
  0.4999999999999997  0.1995421554646076  0.0466110573483008   T   T   T
  0.4999999999999997  0.5153620669934179  0.0013372663690272   T   T   T
  0.0000000000000000  0.7178173193261072  0.0728763416845704   T   T   T
  0.4999999999999997  0.6496089525254524  0.2280238356584543   T   T   T
  0.4999999999999997  0.9313457429757027  0.1429925433486042   T   T   T
 -0.0000000000000000  0.1417487287622268  0.2077047676057282   T   T   T
  0.4999999999999997  0.0714285714285716  0.3571428571428569   T   T   T
  0.4999999999999997  0.3472646805638260  0.2666573872610413   T   T   T
  0.0000000000000000  0.5714285714285730  0.3571428571428574   T   T   T
  0.4999999999999997  0.4932481903316918  0.4862618786272601   T   T   T
  0.4999999999999997  0.7955924622933185  0.4476283270246730   T   T   T
 -0.0000000000000000  0.0011084140949159  0.5065809466799861   T   T   T
  0.4999999999999997  0.9433149873925364  0.6676746569374141   T   T   T
  0.4999999999999997  0.2115113998814418  0.5712931709371102   T   T   T
 -0.0000000000000000  0.4250398235310376  0.6414093726011443   T   T   T
  0.4999999999999997  0.3328079248745787  0.7927310329759076   T   T   T
  0.4999999999999997  0.6274950758637271  0.7129484479166871   T   T   T
 -0.0000000000000000  0.8755332159819267  0.7943517752579247   T   T   T
  0.4999999999999997  0.8100492179825666  0.9215546813098070   T   T   T
