Sr Co O 
 1.0000000000000000
    -4.0135013053189672    3.8679771008860246    0.0322085067703439
     4.0135013053189672    3.8679771008860242   -0.0322085067703440
     0.0973197157676074   -3.8679771008860246  -11.5989622580370355
 Sr  Co  O  
   6   6  14
Selective dynamics
Direct
 -0.0064224092249888  0.0111111623276115  0.0117875665114432   T   T   T
  0.8360630562388135  0.8210806269612282  0.6434133959775885   T   T   T
  0.6645171803702570  0.6659462118927246  0.3329755843185968   T   T   T
  0.5006764041838305  0.5182099757364325  0.0117875665114432   T   T   T
  0.3223327690163604  0.3073503397387735  0.6434133959775885   T   T   T
  0.1670293724258728  0.1684584039483389  0.3329755843185968   T   T   T
  0.8768110736398541  0.4501177476939357  0.8269288213337899   T   T   T
  0.7578501872315294  0.2477993067881680  0.5056494940196974   T   T   T
  0.5748366977522343  0.0854715685798779  0.1603082663321123   T   T   T
  0.4353917318464495  0.8852603707353943  0.8206521025818446   T   T   T
  0.2509405547740494  0.7448297958256627  0.4957703505997128   T   T   T
  0.0828426237263750  0.5942550440044525  0.1770976677308282   T   T   T
  0.6731918828599961  0.1983879520501807  0.8654183730210221   T   T   T
  0.8934588858576119  0.2908330404855188  0.6842919263431306   T   T   T
 -0.0258635290331763  0.0021655472311629  0.4763020181979865   T   T   T
  0.5061597793640381  0.0014531094225839  0.4868694388586886   T   T   T
  0.8110204424258912  0.8515186153311571  0.1625390577570484   T   T   T
  0.3310344092769796  0.8417781243507422  0.1547954347933030   T   T   T
  0.6877889661194329  0.6917365354496954  0.8795255015691283   T   T   T
  0.1670304209708426  0.6922264901610273  0.8654183730210245   T   T   T
  0.3089259991888809  0.8507611872866917  0.6596871864755730   T   T   T
  0.5231128044309437  0.4817720892291686  0.5048848936601121   T   T   T
 -0.0145836705638951  0.4807096594946503  0.4868694388586888   T   T   T
  0.1924686503289731  0.6457912487069161  0.3382598990358899   T   T   T
  0.3370351709119416  0.3138814580842443  0.1509166289961859   T   T   T
  0.8130173104425613  0.3237610255163220  0.1547954347933029   T   T   T
