Sr Co O 
 1.0000000000000000
     4.0898052712446802    0.0000000000000000    4.0898052712446802
    -0.1912074201684792   -7.5224576648087558    0.1912074201684786
     4.0256121090292885    0.2998176925025904   -8.1154173802739606
 Sr  Co  O  
   6   6  12
Selective dynamics
Direct
  0.0324955855421571 -0.0279021626326066  0.0384986438710504   T   T   T
  0.3274734348755687  0.0361955356057114  0.6384745842267548   T   T   T
  0.6669102046502673  0.0144150177465778  0.3196971438676927   T   T   T
  0.0223321839821482  0.4638044643942870  0.0281920824399122   T   T   T
  0.3273302750044395  0.5279021626326056  0.6281680227956156   T   T   T
  0.6805463941159106  0.4855849822534218  0.3469695227989759   T   T   T
  0.4479582414844615  0.6976066608121562 -0.0499627538463020   T   T   T
  0.8312543286640987  0.8023933391878401  0.7166294205129703   T   T   T
  0.2571054878844447  0.7499999999999982  0.3333333333333330   T   T   T
  0.5090708426055468  0.2744702543454575  0.0213502017432900   T   T   T
  0.8210539741955892  0.2255297456545414  0.6453164649233772   T   T   T
  0.1587250105080181  0.2500000000000000  0.3333333333333335   T   T   T
  0.4055111000004786  0.7481213344938388  0.1545488655469511   T   T   T
  0.1890550287069236  0.7991151949794162  0.7695123777237125   T   T   T
  0.7528759843165486  0.7008848050205817  0.8971542889429547   T   T   T
  0.5842955677868592  0.7518786655061583  0.5121178011197144   T   T   T
  0.7831075947983555  0.0705518337766894  0.7820351320027347   T   T   T
  0.1080841708312739 -0.0262908274041559  0.3458496499877564   T   T   T
  0.3348348773061093  0.2217861105882991  0.1615268947830680   T   T   T
  0.3344057961289557  0.4294481662233102 -0.1153684653360678   T   T   T
  0.5066413158563758  0.2782138894117000  0.5051397718835989   T   T   T
  0.0081783842972911  0.2832576544456367  0.5263253830285199   T   T   T
  0.8151863346021073  0.2167423455543623  0.1403412836381475   T   T   T
  0.0955678541768514  0.5262908274041548  0.3208170166789105   T   T   T
