Sr Co O 
 1.0000000000000000
     3.9894608524759128    4.3695817188546329   -0.0869099168468943
     3.9043697218984996   -4.2828510124556516   -0.0008460690019135
     0.1135109521242628    0.1254407875227989  -10.8417984444331186
 Sr  Co  O  
   6   6  12
Selective dynamics
Direct
 -0.0276714761929556  0.0185821185670421  0.0009579102484936   T   T   T
  0.0189702611246367  0.0469905506719976  0.6813348272756387   T   T   T
 -0.0439181471826724  0.0244810235080375  0.3272473178518701   T   T   T
  0.4746543264856814  0.4470423073678291  0.0023351805698654   T   T   T
  0.5060111772409687  0.4999444886766134  0.6852860531345839   T   T   T
  0.4795370311934979  0.4542014355727644  0.3235966244328496   T   T   T
  0.5406850897641503 -0.0006630741279084  0.8069971488301126   T   T   T
  0.4261772565990877 -0.0168895978617411  0.5045519342608432   T   T   T
  0.4870378348746193 -0.0196685114368021  0.1740700043303983   T   T   T
 -0.0322860594596886  0.5467290929388470  0.8478917425567514   T   T   T
  0.0705384562622096  0.5382368564917799  0.5025962875271973   T   T   T
 -0.0681213489337114  0.5134877177840252  0.1739163496208151   T   T   T
  0.2903014052889862  0.1749934385705067  0.8406952360432581   T   T   T
  0.6279191788934073 -0.0792152671456282  0.6196991193465105   T   T   T
  0.2624285010492931  0.7819628107163925  0.4007591425726488   T   T   T
  0.2838892716523215  0.2681769568469581  0.5145265326461212   T   T   T
  0.2446739446992023  0.1600259326190474  0.1768318225412323   T   T   T
  0.0937374329217370  0.6044343350496085  0.0183992207956017   T   T   T
  0.7815638838801949  0.2537111516146016  0.8324697196010776   T   T   T
  0.6905598704255234  0.7386836500069012  0.8648471092921025   T   T   T
  0.0989919171797292  0.6221990310503507  0.6770091584761035   T   T   T
 -0.1100280495355622  0.4434700136103435  0.3637222297505383   T   T   T
  0.7232836768707496  0.2319245479580744  0.1438852341117411   T   T   T
  0.6810645324361857  0.7471589747977779  0.1830407317896363   T   T   T
