Sr Co O 
 1.0000000000000000
     3.8068380019361880    0.0000000000000000    0.0000000000000000
     0.0000000000000000    8.1817401442542206   -0.0293125777046865
     0.0000000000000000   -0.0476198174222587   11.1169222786343926
 Sr  Co  O  
   6   6  12
Selective dynamics
Direct
  0.0000000000000000  0.0016503477252961  0.0003541508226939   T   T   T
  0.0000000000000000 -0.0022931673738088  0.3223040529087305   T   T   T
  0.0000000000000000 -0.0266365933852544  0.6852779414330750   T   T   T
  0.0000000000000000  0.4906870557090758  0.0032304001027448   T   T   T
  0.0000000000000000  0.5038741901220940  0.3142875195014566   T   T   T
  0.0000000000000000  0.5128269139952641  0.6918552484022590   T   T   T
  0.5000000000000002  0.2459142605489894  0.1665287063862649   T   T   T
  0.5000000000000002  0.2512098888075077  0.5042635855653687   T   T   T
  0.5000000000000002  0.2421808558389459  0.8339096928995261   T   T   T
  0.5000000000000002  0.7516899659738093  0.1601335278486770   T   T   T
  0.5000000000000002  0.7743844482865802  0.4964628238768917   T   T   T
  0.5000000000000002  0.7440058483112714  0.8413452983132976   T   T   T
  0.0000000000000000  0.2470453437489047  0.1664079995424660   T   T   T
  0.5000000000000002  0.0011647533314513  0.1639888760650773   T   T   T
  0.0000000000000000  0.3203664430694364  0.5025053089421404   T   T   T
  0.5000000000000002  0.0236473407735412  0.4858978289416094   T   T   T
  0.0000000000000000  0.2403563537636747  0.8254180340008286   T   T   T
  0.5000000000000002  0.0072050522029628  0.8362992521651910   T   T   T
  0.0000000000000000  0.7497296221908460  0.1591835472875130   T   T   T
  0.5000000000000002  0.4950845367889166  0.1725684212010589   T   T   T
  0.0000000000000000  0.7400132331660950  0.4480407263842501   T   T   T
  0.5000000000000002  0.7166994997860069  0.6616142177539311   T   T   T
  0.0000000000000000  0.7449340692533157  0.8731597673823952   T   T   T
  0.5000000000000002  0.4742598459625975  0.8516296750239374   T   T   T
