Sr Co O 
 1.0000000000000000
    -4.1821296570981987    3.7373218001274382    3.8486934250753255
    -4.3079949006861211   -3.9162124284390623    3.8990889974272709
     4.2642906242819363    0.0143493284220698    7.7618699713669210
 Sr  Co  O  
   6   6  12
Selective dynamics
Direct
  0.0055956651351190 -0.0002756291314401 -0.0378300109631382   T   T   T
  0.1699090015246246  0.1732987250038588  0.3621541519832916   T   T   T
  0.3246525181177714  0.3007698509968921  0.6877718836184413   T   T   T
  0.5259491751512210  0.4966328111308497 -0.0347852482233104   T   T   T
  0.6593165113391801  0.6519040097354316  0.3765886792420328   T   T   T
  0.8094427390911286  0.8450648669154043  0.6683395503346177   T   T   T
  0.0952796982307988  0.7252495368385297  0.3396908120298029   T   T   T
  0.3407756071959928  0.8294071052041235  0.6849606154498582   T   T   T
  0.5346603606859658 -0.0089145876866456  0.0111251801081969   T   T   T
  0.6800449245652311  0.1305339975469485  0.3307665607084857   T   T   T
  0.8205807274475115  0.3058603999444219  0.6678253209682803   T   T   T
 -0.0393623742124943  0.5510951528875211 -0.0326819034415792   T   T   T
  1.0081163014132606  0.9809014208637119  0.2409504340951842   T   T   T
  0.5132070368226561 -0.0090475051901549  0.4962294671221047   T   T   T
  0.0733992781864669  0.0391486845496787  0.6377579904119517   T   T   T
  0.3873889781759648  0.9258679094108700  0.8760389218330009   T   T   T
  0.6556510840303275  0.1490929709384251  0.8300606882998300   T   T   T
  0.5083679142478328  0.1731754359772705  0.1639220170029453   T   T   T
  0.7349376824156498  0.2919328921405437  0.4568588735198268   T   T   T
  0.0858878112656481  0.5070196402666431  0.4701550030868987   T   T   T
  0.6024694639585405  0.5896348993755406  0.6702344295872037   T   T   T
  0.9448280182667161  0.3587512648078316  0.8562191837233804   T   T   T
  0.1785347565536631  0.6329349800136611  0.8519897016766748   T   T   T
  0.7137004739281205  0.6932943035326602  0.0923243573844342   T   T   T
