Sr Co O 
 1.0000000000000000
    -3.8856364313612981    3.8856364313612999    3.8856364313612972
    -3.9371204349863720    0.0128710009062668   -7.8356278672539368
    -0.0128710009062706   -7.8356278672539359    3.9371204349863707
 Sr  Co  O  
   7   7  18
Selective dynamics
Direct
 -0.0146134417147366 -0.0000000000000000  0.0000000000000000   T   T   T
  0.2888064049110232  0.6932293270698701  0.1513421810267071   T   T   T
  0.5955770778411523  0.4581128539568367  0.3067706729301294   T   T   T
  0.8654587300731406  0.1471148216621135  0.4444336554485277   T   T   T
  0.1374642238843158  0.8486578189732922  0.5418871460431625   T   T   T
  0.4210250746246129  0.5555663445514721  0.7026811662135857   T   T   T
  0.7183439084110269  0.2973188337864140  0.8528851783378865   T   T   T
  0.9119242402980220  0.5660702249424667  0.7074918855946151   T   T   T
  0.2044323547034075  0.2925081144053844  0.8585783393478509   T   T   T
  0.5565618059763922  0.0000000000000002 -0.0000000000000001   T   T   T
  0.7826741877839727  0.7039560615156079  0.1341361976262425   T   T   T
  0.0787181262683655  0.4301801361106349  0.2960439384843920   T   T   T
  0.3458540153555559  0.1414216606521486  0.4339297750575332   T   T   T
  0.6485379901577296  0.8658638023737569  0.5698198638893648   T   T   T
  0.8291762326732589  0.7399535689400857  0.6751706068399080   T   T   T
  0.8404835863605622  0.6422114061796697  0.9243557723640625   T   T   T
  0.0768132864896181  0.4566891762299864  0.7962096003058761   T   T   T
  0.5025207573111206  0.4691603256943291  0.0071594699913501   T   T   T
  0.1540056258333510  0.3248293931600919  0.0647829621001772   T   T   T
  0.7450962557334746  0.2216079028132866  0.1746308261220235   T   T   T
  0.5704654296114506  0.8253691738779757  0.0469770766912623   T   T   T
  0.0892226637331735  0.9352170378998226  0.2600464310599141   T   T   T
  0.7410651291938884  0.7891057250293922  0.3499760282041173   T   T   T
  0.9519594041644962  0.5608703031747251  0.2108942749706065   T   T   T
  0.3910891009897714  0.6500239717958821  0.4391296968252745   T   T   T
  0.0333604316167914  0.5379991442970207  0.5308396743056705   T   T   T
  0.1982721801808930  0.2821443661843928  0.3577885938203304   T   T   T
  0.6201241102596310  0.3395204240758890  0.5433108237700135   T   T   T
  0.2806036861837422  0.2037903996941240  0.6604795759241103   T   T   T
  0.4953612873197701 -0.0071594699913504  0.4620008557029789   T   T   T
  0.9161278139965001  0.0756442276359381  0.7178556338156074   T   T   T
  0.5234883529201880  0.9530229233087365  0.7783920971867124   T   T   T
