Sr Co O 
 1.0000000000000000
    -4.2273116788358385   -0.0979160321482806   -3.9299068125718062
     0.0618152582368208   -7.4580192601339839   -0.2582735117428894
    -4.2580182357345651    4.0159634048087209    7.9821125314975667
 Sr  Co  O  
   6   6  12
Selective dynamics
Direct
  0.0341223506794657 -0.0343357379384947 -0.0363144958878149   T   T   T
  0.6209146138008567  0.1512252366139598  0.3366407037630333   T   T   T
  0.3327056221665596  0.3612215281115181  0.6670014440096405   T   T   T
  0.0277430258334802  0.4988753433334270  0.0149878868575741   T   T   T
  0.6387807564153849  0.6748244643641921  0.3593402483266165   T   T   T
  0.2948747843052640  0.8423373903848105  0.6361299288688624   T   T   T
  0.5471404321331778  0.7757037998309383  0.0191802896210969   T   T   T
  0.1485694680220460  0.8887446487415922  0.3017005989066600   T   T   T
  0.8336796370183920  0.1287834179826274  0.7213669401713956   T   T   T
  0.4747887489768243  0.2311915619162721 -0.0054955275381159   T   T   T
  0.1648623658521383  0.4192341135604205  0.3364656131384670   T   T   T
  0.8146500124098681  0.5585166956504605  0.6280554556398658   T   T   T
  0.8599555833266522  0.8855229872405164  0.1382314818268706   T   T   T
  0.3775612041092192  0.7702154077100133  0.1606921383363697   T   T   T
  0.4142484426103133  0.0165026680316513  0.4817250334799362   T   T   T
  0.2056589310912239  0.1945228402945271  0.8230818750915644   T   T   T
  0.7951635430676827  0.4010953063153321  0.7383392072356263   T   T   T
  0.7505651266736008  0.2019942916485925  0.9325455835018444   T   T   T
  0.3323408812591778  0.2679162015444634  0.1576095154879473   T   T   T
  0.4757657152248997  0.5049044175132219  0.4942856138478542   T   T   T
  0.0326313853578708  0.6471764342379523  0.3077920116379179   T   T   T
 -0.0217861384179269  0.3800945187666893  0.4608299351615983   T   T   T
  0.3247654048853519  0.7283514258769972  0.8396547148975970   T   T   T
  0.8536315288972235  0.8387143866325706  0.6528204774976325   T   T   T
