Sr Co O 
 1.0000000000000000
    -3.8547451829524180    4.0864285844223334    0.0000000000000000
     3.8956466578572821    4.1296287313150497    0.0000000000000000
    -0.0204507374524320   -4.1080286578686929  -11.5243459002690933
 Sr  Co  O  
   6   6  12
Selective dynamics
Direct
  0.0181242448685468  0.0177932248978475  0.0114570294142111   T   T   T
  0.8396482230764681  0.8119003235191127  0.6708847303932728   T   T   T
  0.6420974553174259  0.6471066887454671  0.3215822956062109   T   T   T
  0.4933327845456641  0.4936638045163634  0.0114570294142111   T   T   T
  0.3312365073168036  0.3589844068741588  0.6708847303932728   T   T   T
  0.1794848402887846  0.1744756068607435  0.3215822956062109   T   T   T
  0.9144202520466937  0.4399681737480676  0.8304579619032629   T   T   T
  0.7919565968693013  0.2383478513519911  0.5058666152068600   T   T   T
  0.5796624663675323  0.0889352515865494  0.1651728190070369   T   T   T
  0.4160377098565687  0.8904897881551935  0.8304579619032629   T   T   T
  0.2139100183375574  0.7675187638548682  0.5058666152068600   T   T   T
  0.0855103526395053  0.5762375674204878  0.1651728190070369   T   T   T
 -0.0405905368556235  0.4423842434880047 -0.0125730792722917   T   T   T
  0.8276302499138880  0.2380658547658016  0.6605578439776312   T   T   T
  0.6666538653718670  0.1056534789119220  0.3543908822632614   T   T   T
  0.3250911859327736  0.8250911859327732  0.1501823718655474   T   T   T
  0.5280174575833322  0.0450426772397037 -0.0125730792722917   T   T   T
  0.6461042637750529  0.6461042637750531  0.7922085275501074   T   T   T
  0.1621866193103066  0.6621866193103069  0.8243732386206151   T   T   T
  0.3329275940637432  0.9224919892118280  0.6605578439776312   T   T   T
  0.0068325496141736  0.5068325496141733  0.5136650992283481   T   T   T
  0.1877370168913943  0.7487374033513382  0.3543908822632614   T   T   T
  0.3416736711727369  0.3416736711727371  0.1833473423454738   T   T   T
  0.8436479657641841  0.3436479657641842  0.1872959315283675   T   T   T
