Sr Co O 
 1.0000000000000000
     3.9760616586527555    0.0000000000000000    3.9760616586527560
     3.9810135233631812   -3.8544321395540404   -3.9810135233631843
     4.1211740624235755    7.9910394499436723   -4.1211740624235729
 Sr  Co  O  
   6   6  12
Selective dynamics
Direct
 -0.0000000000000000  0.0052024618236487  0.0415715173555463   T   T   T
  0.5000000000000008  0.6666666666666663  0.8333333333333344   T   T   T
 -0.0000000000000000  0.3281308715096836  0.6250951493111206   T   T   T
  0.4999999999999998 -0.0219330354533459  0.4644283703756769   T   T   T
 -0.0000000000000004  0.6666666666666659  0.3333333333333339   T   T   T
  0.5000000000000002  0.3552663687866781  0.2022382962909904   T   T   T
  0.4999999999999986  0.8374454831513638  0.1700289504261889   T   T   T
  0.0000000000000002  0.5529385468698772  0.0129977851776709   T   T   T
  0.4999999999999996  0.1666666666666658  0.8333333333333333   T   T   T
 -0.0000000000000009  0.7803947864634538  0.6536688814889959   T   T   T
  0.4999999999999999  0.4958878501819659  0.4966377162404783   T   T   T
 -0.0000000000000001  0.1666666666666663  0.3333333333333333   T   T   T
  0.2599134068573836  0.0036386008987312  0.2428688017847257   T   T   T
  0.2737833935342610  0.7080731363262435  0.0643671103655777   T   T   T
  0.7262166064657399  0.7080731363262425  0.0643671103655776   T   T   T
 -0.0000000000000003  0.6666666666666654  0.8333333333333341   T   T   T
  0.7262166064657392  0.6252601970070871  0.6022995563010901   T   T   T
 -0.0000000000000005 -0.0200180365870656  0.5213997459033208   T   T   T
  0.2737833935342598  0.6252601970070877  0.6022995563010900   T   T   T
  0.2599134068573830  0.3296947324346007  0.4237978648819412   T   T   T
  0.5000000000000000  0.6666666666666652  0.3333333333333338   T   T   T
  0.7400865931426170  0.3296947324346011  0.4237978648819419   T   T   T
  0.7400865931426169  0.0036386008987310  0.2428688017847259   T   T   T
  0.0000000000000001  0.3533513699203982  0.1452669207633458   T   T   T
