Sr Co O 
 1.0000000000000000
     3.9558395679475824   -0.0000000000000000    3.7827477050548568
    -0.0000000000000000   -8.2224015838663380    0.0000000000000000
     3.9582233587291538    0.0000000000000000   -7.5679583694447317
 Sr  Co  O  
   6   6  13
Selective dynamics
Direct
  0.0000000000000000  0.0367140423682444 -0.0000000000000000   T   T   T
  0.3385396473860509  0.0321736427260491  0.6649864595226298   T   T   T
  0.6614603526139455  0.0321736427260491  0.3350135404773730   T   T   T
  0.0000000000000000  0.4632859576317555  0.0000000000000000   T   T   T
  0.3385396473860509  0.4678263572739511  0.6649864595226298   T   T   T
  0.6614603526139455  0.4678263572739511  0.3350135404773730   T   T   T
  0.4999999999999980  0.7499999999999998  0.0000000000000015   T   T   T
  0.8176647379560285  0.7499999999999998  0.6561449436719587   T   T   T
  0.1823352620439661  0.7499999999999998  0.3438550563280438   T   T   T
  0.4999999999999980  0.2500000000000001  0.0000000000000015   T   T   T
  0.8426462776053136  0.2500000000000001  0.6694822992373712   T   T   T
  0.1573537223946829  0.2500000000000001  0.3305177007626321   T   T   T
  0.4999999999999980 -0.0377222175028052  0.0000000000000015   T   T   T
  0.4999999999999971  0.7499999999999998  0.5000000000000011   T   T   T
  0.8870019596227781 -0.0357553018968376  0.6894105851502493   T   T   T
  0.1129980403772176 -0.0357553018968376  0.3105894148497538   T   T   T
  0.3270897692492748  0.2500000000000001  0.1655051591975144   T   T   T
  0.1808337432154918  0.2500000000000001  0.8355577615399279   T   T   T
  0.4999999999999980  0.5377222175028057  0.0000000000000015   T   T   T
  0.6729102307507221  0.2500000000000001  0.8344948408024889   T   T   T
  0.4999999999999971  0.2500000000000001  0.5000000000000011   T   T   T
  0.8870019596227781  0.5357553018968370  0.6894105851502493   T   T   T
 -0.0000000000000002  0.2500000000000001  0.4999999999999998   T   T   T
  0.8191662567845037  0.2500000000000001  0.1644422384600759   T   T   T
  0.1129980403772177  0.5357553018968370  0.3105894148497538   T   T   T
