Sr Co O 
 1.0000000000000000
     3.7025227797572944    0.0000000000000000    0.0000000000000000
     0.0000000000000000    8.0406408290080353    0.0706815670942219
     0.0000000000000000    0.1081884992679310   12.1834453604492285
 Sr  Co  O  
   6   6  13
Selective dynamics
Direct
 -0.0000000000000000 -0.0282997928021190 -0.0002133821154256   T   T   T
  0.0000000000000000  0.0282997928021190  0.3335467154487588   T   T   T
  0.0000000000000000  0.0000000000000000  0.6666666666666664   T   T   T
  0.0000000000000000  0.5138471019387232 -0.0004392938759450   T   T   T
 -0.0000000000000000  0.4861528980612760  0.3337726272092786   T   T   T
  0.0000000000000000  0.4999999999999997  0.6666666666666667   T   T   T
  0.5000000000000002  0.2596940639745446  0.1689536357504652   T   T   T
  0.5000000000000002  0.2644113869273954  0.5014090374703372   T   T   T
  0.5000000000000002  0.2531297363182776  0.8242780096510158   T   T   T
  0.5000000000000002  0.7403059360254544  0.1643796975828682   T   T   T
  0.5000000000000002  0.7468702636817219  0.5090553236823178   T   T   T
  0.5000000000000002  0.7355886130726043  0.8319242958629970   T   T   T
 -0.0000000000000000  0.2039984279462194  0.1299780117315679   T   T   T
  0.5000000000000002  0.2245662663042121  0.3317190339189982   T   T   T
 -0.0000000000000000  0.2152077033796808  0.5005915193879148   T   T   T
  0.5000000000000002  0.2398892243108780  0.6630855150551889   T   T   T
 -0.0000000000000000  0.1821790712105118  0.8523313390536083   T   T   T
  0.5000000000000002  0.7754337336957877  0.0016142994143353   T   T   T
  0.0000000000000000  0.7960015720537804  0.2033553216017658   T   T   T
  0.5000000000000002  0.5000000000000001  0.1666666666666668   T   T   T
  0.0000000000000000  0.8178209287894876  0.4810019942797246   T   T   T
  0.5000000000000002  0.5117810540892810  0.4773611696626978   T   T   T
  0.5000000000000002  0.7601107756891212  0.6702478182781449   T   T   T
 -0.0000000000000000  0.7847922966203185  0.8327418139454182   T   T   T
  0.5000000000000002  0.4882189459107190  0.8559721636706346   T   T   T
