Sr Co O 
 1.0000000000000000
    -3.8325463405233515    4.2350291465582446    3.7790432627152573
    -3.5679128935528048   -4.1005227590848108    3.9037087902023431
     4.0298186803102451   -0.2646894579864824    8.0066461306596235
 Sr  Co  O  
   6   6  12
Selective dynamics
Direct
  0.0236560032732723 -0.0291531121812751 -0.0259797825677554   T   T   T
  0.1098026714902343  0.1407170300388763  0.3219040224243462   T   T   T
  0.3051693886782806  0.4115843227957644  0.6575885097649592   T   T   T
  0.5974243814997743  0.4333775961236938  0.0252919894926270   T   T   T
  0.6969463649970834  0.7367302504305677  0.3064833092473762   T   T   T
  0.8047229258407320  0.8210806968830999  0.7006644117708933   T   T   T
  0.1898727907015932  0.5789867066491478  0.3176006093100999   T   T   T
  0.3649261335504920  0.8434720027682309  0.6670963396575295   T   T   T
  0.4782386667974846  0.0109902557147718 -0.0276857683544574   T   T   T
  0.6216081046870157  0.1857123271438173  0.3898354064121551   T   T   T
  0.8289461971796960  0.3874743796986756  0.6456170177257353   T   T   T
  0.0804580587468151  0.4736046952887976 -0.0253779294764196   T   T   T
  0.0422132767474336  0.5717079106520071  0.1698251683246328   T   T   T
  0.4275663134746150 -0.0127375849848565  0.4452944007793434   T   T   T
  0.3776599628655888  1.0356068521116082  0.7875428741144807   T   T   T
  0.3089554254554810  0.2335555797050464  0.0477099820150077   T   T   T
  0.8125862750972398  0.1077771054699334  0.2056910264221855   T   T   T
  0.4608928241763033  0.4859877005743014  0.3390583915777865   T   T   T
  0.8122055480315293  0.1882769119418865  0.5330750468949808   T   T   T
 -0.0115877090240221  0.6175632600151980  0.4946507067649218   T   T   T
  0.5693822400786783  0.5687925037712731  0.7132428804878288   T   T   T
  0.9380660497323772  0.3581969678321544  0.8478270199600493   T   T   T
  0.1297882849152795  0.7205582898247257  0.7932301995295131   T   T   T
  0.6971665959605321  0.7968038589447514  0.0031474689469611   T   T   T
