Sr Co O 
 1.0000000000000000
     3.9532925265186081    0.0886137869510477    4.0632429650595201
    -0.0337449383883276   -8.2633125019779055   -0.1367117215881920
     3.7693703183861755   -0.1284408000146608   -7.9534759993620190
 Sr  Co  O  
   6   6  13
Selective dynamics
Direct
  0.0447520478727356 -0.0006277314690974  0.0296915776755883   T   T   T
  0.3363066863054259  0.0001864470852443  0.6296067341957640   T   T   T
  0.6780336508182755  0.0111488484595311  0.3287275819243046   T   T   T
  0.0131000789762903  0.4593582100379627 -0.0171303440641003   T   T   T
  0.3132873003234987  0.4607972557030859  0.6525714550841856   T   T   T
  0.6650494284319004  0.4729241616025863  0.3701285351861960   T   T   T
  0.5295998323905143  0.7113547686856171 -0.0067970399534361   T   T   T
  0.8794089882138214  0.7604100701871649  0.7440060220644337   T   T   T
  0.0959173371092104  0.7248006656748812  0.3063775926746499   T   T   T
  0.5016311397037354  0.2744551497722164  0.0175347755356721   T   T   T
  0.8802373230862420  0.1911639943259922  0.6607753897492026   T   T   T
  0.1436233430709281  0.2663646817944748  0.3119396686945435   T   T   T
  0.1689609522057409  0.7404398541355697  0.9464183683280074   T   T   T
  0.6493510573512822  0.8390116281406140  0.8404297334069210   T   T   T
  0.2392461849207284  0.9285505708780991  0.3391450859809955   T   T   T
  0.8896170006195714 -0.0487542936910160  0.6232363174408713   T   T   T
  0.7365374918414810  0.7401793791884993  0.2240520458318973   T   T   T
  0.3743384214668697  0.2425996188563864  0.1944585364237142   T   T   T
  0.1720243629394682  0.2194026212257994  0.8451682004624008   T   T   T
  0.5634397684460084  0.4855580252108769 -0.0596649820353762   T   T   T
  0.5505279351442069  0.2465422132461769  0.5812955931110275   T   T   T
  0.8739036215487508  0.5615375304113068  0.6605737039312044   T   T   T
 -0.0058688605902441  0.2485152017974260  0.4794932685603852   T   T   T
  0.8329833471703437  0.1997823525222665  0.1248533677010239   T   T   T
  0.2073249138980679  0.5142987518179749  0.3397755441055479   T   T   T
