Sr Co O 
 1.0000000000000000
     4.1355618319678777    0.1103800582820462    4.1286640993908188
    -3.9810378476979205    4.0910295603243867    4.0942858884302726
    -4.0331322454344383   -7.9013150842764945   -0.3337851296595214
 Sr  Co  O  
   5   5  10
Selective dynamics
Direct
 -0.0458189159308441 -0.0151385289254543 -0.0150145184589836   T   T   T
  0.6279357008330149  0.4339768402328931  0.2281562226675337   T   T   T
  0.2752683792324275  0.8353348937827787  0.4652599694489437   T   T   T
  0.7781258467783084  0.1879885960118257  0.5555891639529532   T   T   T
  0.3804814360569484  0.5618149021262449  0.7677698549254544   T   T   T
  0.3991814465230908  0.1516322785175711  0.8455311202234306   T   T   T
 -0.0232297271234889  0.4437848794596645 -0.0485629067859260   T   T   T
  0.5420598457454202  0.9773475634719365  0.1544805980947463   T   T   T
  0.1918129673697571  0.2829199569225487  0.4062423692376380   T   T   T
  0.8136802255797463  0.6652705202492003  0.6137472513102490   T   T   T
  0.2193921319749122  0.2716220968953309  1.0038628035797008   T   T   T
  0.4984963681478078 -0.0854253248999483 -0.0732256366353986   T   T   T
  0.6706220799730838  0.3791810749435295  0.9544845466674357   T   T   T
  0.3590220540422855  0.0127563434711345  0.2880346090718228   T   T   T
  0.8548875802773797  0.1377880775427489  0.2684011595925178   T   T   T
  0.0237090297406550  0.5616028585919357  0.4831656081008323   T   T   T
  0.2269026526113209  0.1807873174304271  0.6186144584591003   T   T   T
  0.5011146287822239  0.4658523268669817  0.4839366272494611   T   T   T
  0.7070080768148419  0.9243985090613368  0.6577932953370000   T   T   T
  0.9993481498407456  0.6265047735032044  0.8417333736170882   T   T   T
