Sr Co O 
 1.0000000000000000
     4.3391211070867266   -0.0804420261956067    4.0860123561046811
     0.0370993874141975   -7.6268819725332193    0.1211026487173333
     3.8986311078037330    0.0965934575551957   -7.7131072746310876
 Sr  Co  O  
   6   6  12
Selective dynamics
Direct
 -0.0029171579578644  0.0071412953774005 -0.0394752060951174   T   T   T
  0.3701838888259976 -0.0247010215307706  0.6834960749292759   T   T   T
  0.6681345656760925  0.0070268986882172  0.3583786977655265   T   T   T
 -0.0290765993209501  0.5164115001734982 -0.0376586839092365   T   T   T
  0.3791114120490208  0.4910996002122716  0.7104759464334338   T   T   T
  0.6316375189609110  0.5230786289917146  0.3387625351741065   T   T   T
  0.4821656631979480  0.7525709712742288 -0.0092392843043472   T   T   T
  0.8264709476912229  0.7522260302823470  0.6576134188330874   T   T   T
  0.1629067815868181  0.7001010723791277  0.3702776143927878   T   T   T
  0.5030669598068201  0.2369236694574774  0.0301206124506719   T   T   T
  0.9320319910376997  0.2586913551899644  0.6583004678893980   T   T   T
  0.0789471377066362  0.2917385775717762  0.3122753061713665   T   T   T
  0.1687765471925775  0.7378041750413062  0.8170879722505431   T   T   T
  0.4310876791775531 -0.0118644123153861  0.0737174294375369   T   T   T
  0.6983771249545586  0.7734795942945392  0.8589078497375614   T   T   T
  0.4560669967594498  0.7835394966458337  0.4692643411884705   T   T   T
  0.7774321957223003  0.0435182628448455  0.6628670138007291   T   T   T
 -0.0901409176899138  0.7573575273085252  0.4374179504160704   T   T   T
  0.2013694291967613  0.2644523286126997  0.8718134070959456   T   T   T
  0.5701722380108039  0.4935746792736225  0.0298681529869001   T   T   T
  0.7579319918480794  0.4750005552997298  0.6433074061520488   T   T   T
  0.1636445657904820  0.2363953215606328  0.5277368890131530   T   T   T
  0.8290250375867240  0.1881233410007047  0.1595802125079128   T   T   T
  0.2002605413528674  0.4963105210032458  0.2484373647925539   T   T   T
