Sr Co O 
 1.0000000000000000
    -3.8084550260513157    4.2512667766284968    3.7967780869963215
    -3.8802517583942890   -4.2466730471960421    3.7154692905268689
     3.9713239663492690    0.1043084633969054    7.6410934416111012
 Sr  Co  O  
   6   6  12
Selective dynamics
Direct
  0.0062409537718712 -0.0409414121779393 -0.0106029361849670   T   T   T
  0.1691470291699269  0.1755245335561480  0.3074326101019978   T   T   T
  0.3431210154529771  0.3253251102104335  0.6833657240383932   T   T   T
  0.5691133201713592  0.4619091212006567 -0.0049444849973433   T   T   T
  0.6538151336362599  0.7132557114590646  0.3098945616322986   T   T   T
  0.7768845793718970  0.8473845367195255  0.7026188105129170   T   T   T
  0.1213724738085153  0.6926613699633388  0.4050231654380787   T   T   T
  0.3349817201138875  0.7887505907763037  0.6861177324859694   T   T   T
  0.4743891266387188  0.0248080221952970  0.0047691523439409   T   T   T
  0.7212902503439623  0.1619419954418709  0.3192817621084127   T   T   T
  0.8397009234625936  0.3617650841685305  0.6311440470848331   T   T   T
  0.0169657088618335  0.4528646015318840 -0.0243346213866381   T   T   T
  0.9425363596786642  0.8935041655620761  0.2922856457696983   T   T   T
  0.2950423143149091  0.8305659398372546  0.4615495028841670   T   T   T
  0.3814177398999022  0.9658426647536483  0.8221435323548646   T   T   T
  0.2867210112060912  0.2797704396891785 -0.0035795370161143   T   T   T
  0.5499453554849805  0.1069937352801266  0.1895435455951990   T   T   T
  0.8396657858715315  0.3969830063425906  0.1915666657647470   T   T   T
  0.7129431330321272  0.1901064664303884  0.5411457242787681   T   T   T
  0.1076101771562138  0.4220243163174532  0.4874051449319219   T   T   T
  0.5990316159419264  0.5876869570554695  0.6694231945093322   T   T   T
  0.9030280714057032  0.2975685394893812  0.8483006920493112   T   T   T
  0.0935296960254120  0.6865924767398275  0.8166987592517714   T   T   T
  0.6781732999986367  0.7937785246003199  0.0070849637741951   T   T   T
