Sr Co O 
 1.0000000000000000
     3.9875461178014047    3.9890848930942222   -0.0000000000000000
     3.9875461178014047   -3.9890848930942222    0.0000000000000000
    -0.0000000000000000    0.0000000000000000  -11.1155939337013017
 Sr  Co  O  
   6   6  13
Selective dynamics
Direct
 -0.0053462392046490  0.0011797965013629 -0.0157698626663436   T   T   T
  0.0027697754132493  0.0053718651547784  0.6666666666666669   T   T   T
 -0.0053462392046490  0.0011797965013629  0.3491031959996769   T   T   T
  0.5011797965013619  0.4946537607953516 -0.0157698626663436   T   T   T
  0.5053718651547779  0.5027697754132504  0.6666666666666669   T   T   T
  0.5011797965013619  0.4946537607953516  0.3491031959996769   T   T   T
  0.5018932217021533  0.0018932217021534  0.8225353844062031   T   T   T
  0.5018932217021533  0.0018932217021534  0.5107979489271305   T   T   T
  0.4997477399110813 -0.0002522600889187  0.1666666666666667   T   T   T
  0.0078981125300674  0.5078981125300689  0.8421113389122743   T   T   T
  0.0078981125300674  0.5078981125300689  0.4912219944210605   T   T   T
 -0.0295142623447382  0.4704857376552631  0.1666666666666667   T   T   T
  0.2654108857224068  0.7654108857224093  0.8129645558654390   T   T   T
  0.2612153033886127  0.2418995394107231  0.8239542238615524   T   T   T
  0.2654108857224068  0.7654108857224093  0.5203687774678949   T   T   T
  0.2612153033886125  0.2418995394107230  0.5093791094717812   T   T   T
  0.2228069013588170  0.1536578158874863  0.1666666666666667   T   T   T
  0.0629697768497794  0.5629697768497810  0.0167793533466233   T   T   T
  0.7448579093467644  0.2448579093467654  0.8303411968219632   T   T   T
  0.7418995394107210  0.7612153033886135  0.8239542238615520   T   T   T
  0.7448579093467644  0.2448579093467654  0.5029921365113710   T   T   T
  0.7418995394107210  0.7612153033886135  0.5093791094717814   T   T   T
  0.0629697768497794  0.5629697768497810  0.3165539799867103   T   T   T
  0.7312035345064469  0.2312035345064479  0.1666666666666667   T   T   T
  0.6536578158874852  0.7228069013588186  0.1666666666666667   T   T   T
