Sr Co O 
 1.0000000000000000
     4.0244689046739444   -0.0363425326670471    4.0407483636593415
     3.8382524784087537   -3.7693321835184701   -3.8033697989128372
     4.0671293819200116    8.1481626398384162   -4.1654000505666540
 Sr  Co  O  
   6   6  12
Selective dynamics
Direct
 -0.0111880512272828  0.0090737580254538  0.0019710272654923   T   T   T
  0.4717529130237253  0.6920353786633402  0.8432949960877989   T   T   T
  0.0117500678697493  0.3864952990404895  0.6732959139518648   T   T   T
  0.4497508093246890 -0.0583772287934405  0.5126070782815944   T   T   T
 -0.0209781134648563  0.6582974659397215  0.3380709136505456   T   T   T
  0.4987183595971877  0.3090821320335282  0.1777206125086063   T   T   T
  0.5570096601443689  0.8199655924456379  0.1728481381204617   T   T   T
 -0.0049177173835318  0.5227260511697049 -0.0132616498219193   T   T   T
  0.4618995205744718  0.1643920140249635  0.8624100804411059   T   T   T
 -0.0420257111144529  0.9164982180095178  0.6997675263415399   T   T   T
  0.4646153823767787  0.4588908483541141  0.4686681742119930   T   T   T
 -0.0493227430757880  0.1433482577632815  0.3829344176782573   T   T   T
  0.4138942736664639 -0.0361660565549846  0.0214762475208700   T   T   T
  0.7811532846591945  0.5854539498613713  0.1153853635610624   T   T   T
 -0.0871131201365875  0.6866436084048563  0.8304445863379687   T   T   T
  0.2644921762048776  0.0485049482076479  0.7254338871636546   T   T   T
  0.7783664135445650  0.1384982639345286  0.8062811926989859   T   T   T
 -0.1056801731499766 -0.0902278104034740  0.5104046165707827   T   T   T
  0.3570444876507361  0.5984991169630461  0.6216497918944002   T   T   T
  0.2781092752447019  0.2353528803788649  0.3809503240960862   T   T   T
  0.4083996570323735  0.6810033907550301  0.3177143808823412   T   T   T
  0.7929602824832415  0.3807542808656537  0.4567786366973403   T   T   T
  0.8043490108235718  0.0283697605689296  0.2193446020128181   T   T   T
  0.2769598559773246  0.3875525802803920 -0.0428574704431384   T   T   T
