Sr Co O 
 1.0000000000000000
     3.6954446572826929    0.0000000000000000    0.0000000000000000
     0.0000000000000000    8.1634069040735717    0.0000000000000000
     0.0000000000000000    0.0000000000000000   11.8261476104773458
 Sr  Co  O  
   6   6  12
Selective dynamics
Direct
 -0.0000000000000000  0.0167911446352891 -0.0117223741036749   T   T   T
  0.0000000000000000  0.0256398671913692  0.3493757781770404   T   T   T
 -0.0000000000000000 -0.0261897030899231  0.6553941224218457   T   T   T
 -0.0000000000000000  0.4832088553647105 -0.0117223741036749   T   T   T
 -0.0000000000000000  0.4743601328086304  0.3493757781770404   T   T   T
  0.0000000000000000  0.5261897030899227  0.6553941224218457   T   T   T
  0.5000000000000004  0.2499999999999998  0.1674940460132216   T   T   T
  0.5000000000000004  0.2499999999999998  0.5101052458439329   T   T   T
  0.5000000000000004  0.2499999999999998  0.8353461792072051   T   T   T
  0.5000000000000004  0.7499999999999994  0.1627651113828149   T   T   T
  0.5000000000000004  0.7499999999999994  0.4931126969699506   T   T   T
  0.5000000000000004  0.7499999999999994  0.8304354151583150   T   T   T
  0.5000000000000004  0.2499999999999998  0.0025446348069508   T   T   T
  0.0000000000000000  0.2499999999999998  0.1639817772313074   T   T   T
  0.5000000000000004  0.2499999999999998  0.3275493365872904   T   T   T
  0.0000000000000000  0.2499999999999998  0.5629613583348754   T   T   T
  0.5000000000000004  0.0016152674447994  0.4958169039609046   T   T   T
  0.5000000000000004  0.0307874547399144  0.8184524684260988   T   T   T
  0.0000000000000000  0.7499999999999994  0.1615623330929228   T   T   T
  0.0000000000000000  0.7499999999999994  0.4459973458894322   T   T   T
  0.5000000000000004  0.4983847325552001  0.4958169039609046   T   T   T
  0.5000000000000004  0.7499999999999994  0.6651415152868423   T   T   T
  0.0000000000000000  0.7499999999999994  0.8897025692458439   T   T   T
  0.5000000000000004  0.4692125452600852  0.8184524684260988   T   T   T
