Sr Co O 
 1.0000000000000000
     3.6855546863960016    0.0000000000000000    0.0000000000000000
     0.0000000000000000    8.0250404984122063    0.0298985714524724
     0.0000000000000000    0.0386447754910267   12.3631494667627173
 Sr  Co  O  
   6   6  13
Selective dynamics
Direct
  0.0000000000000000 -0.0576512801881750 -0.0211825150328836   T   T   T
  0.0000000000000000  0.0372323831720713  0.3533818827156896   T   T   T
  0.0000000000000000 -0.0081199060460731  0.6755500508013874   T   T   T
  0.0000000000000000  0.5119379099157068 -0.0239647287570915   T   T   T
  0.0000000000000000  0.4843959858179096  0.3281520566596010   T   T   T
  0.0000000000000000  0.4725434258827829  0.6823780008639346   T   T   T
  0.4999999999999997  0.2710041838377343  0.1662867460767255   T   T   T
  0.4999999999999997  0.2489063380338427  0.5127430037766255   T   T   T
  0.4999999999999997  0.2277516101461035  0.8323321937445287   T   T   T
  0.4999999999999997  0.7902379443051386  0.1837134703535490   T   T   T
  0.4999999999999997  0.7575770421098845  0.4905336512374724   T   T   T
  0.4999999999999997  0.7276283045003890  0.8075828406137845   T   T   T
  0.0000000000000000  0.3200179291074594  0.1356528988924657   T   T   T
  0.4999999999999997  0.2494538824838102  0.3175367059494345   T   T   T
  0.0000000000000000  0.3327709586327466  0.4971963361438506   T   T   T
  0.4999999999999997 -0.0054083650021028  0.4962353743507071   T   T   T
  0.4999999999999997  0.2317928298234003  0.6730318257258605   T   T   T
  0.0000000000000000  0.2250443761433067  0.8801693376206366   T   T   T
  0.4999999999999997 -0.0302285853440753  0.8271040394310982   T   T   T
  0.4999999999999997  0.7214157701881904  0.0345268156148320   T   T   T
  0.0000000000000000  0.8858678696475588  0.1849829027693861   T   T   T
  0.4999999999999997  0.6950161733878902  0.3442702046122952   T   T   T
  0.4999999999999997  0.6936268507296220  0.6324297381883748   T   T   T
  0.0000000000000000  0.7322986683173297  0.8207344636297186   T   T   T
  0.4999999999999997  0.4848875959511288  0.8352894474075866   T   T   T
