Sr Co O 
 1.0000000000000000
    -3.7450701209237387    3.6335360113490802    4.5255066500919581
    -3.7288832439233368   -3.6109122356808561    4.5256635508397078
     3.7351108534079365   -0.0139943370836534    9.0291484537822289
 Sr  Co  O  
   6   6  13
Selective dynamics
Direct
 -0.0339691775615143 -0.0358430277074955 -0.0040867369534718   T   T   T
  0.1435312117736016  0.1438001196423008  0.3445023076704355   T   T   T
  0.3331162117903346  0.3333995174645564  0.6818371436667372   T   T   T
  0.4663844969659999  0.4643687826085957 -0.0038804054018574   T   T   T
  0.6494582317658413  0.6493353674930014  0.3337315271269505   T   T   T
  0.8286284005231965  0.8296999097406996  0.6904553175657611   T   T   T
  0.1782019026661600  0.6255365892301663  0.3349515312245522   T   T   T
  0.3440757021128188  0.8389946702145531  0.6802705591559504   T   T   T
  0.4708663202202341 -0.0230598961702155 -0.0108466511611949   T   T   T
  0.6250318982856684  0.1797091241795991  0.3340657117685293   T   T   T
  0.8385331671456778  0.3446361394798041  0.6801308905349450   T   T   T
 -0.0211180122243811  0.4691774810797048 -0.0111382867083860   T   T   T
  0.0555851191798260  0.5819173634091399  0.2200733986177492   T   T   T
  0.1442934440362035  0.1457947639729713  0.6002294361478686   T   T   T
  0.3965384855862638  0.8930713748716883  0.8496406051657943   T   T   T
  0.6392854596213542  0.1748359226675553  0.8278809217128945   T   T   T
  0.1718881424372287  0.1709046950246594  0.0739746305962265   T   T   T
  0.5818876633864641  0.0573931295769669  0.2185678526308396   T   T   T
  0.4821147602739801  0.4858222883231681  0.2422884594442972   T   T   T
  0.7254311837780287  0.1948663456621801  0.4752529766746086   T   T   T
  0.1929618651327050  0.7251080396086866  0.4766588773406122   T   T   T
  0.6476497655500756  0.6495138974240121  0.5927090351589434   T   T   T
  0.8933505736335997  0.3961494384355524  0.8499134886864261   T   T   T
  0.1756569852895829  0.6380137629653495  0.8286301765975737   T   T   T
  0.7372831858022684  0.7335208765548085  0.0275204411553851   T   T   T
