Sr Co O 
 1.0000000000000000
     3.9498090909744863    0.0283877275174941    4.1988415852138390
     0.0040369375155468   -7.5230115282254975   -0.0565513567043169
     3.8751855606669641   -0.0625527819145584   -8.3233318976034507
 Sr  Co  O  
   6   6  14
Selective dynamics
Direct
 -0.0678414967107073 -0.0042414833216862  0.0074366679866416   T   T   T
  0.3942307047060719  0.0011850541812278  0.6414694805824028   T   T   T
  0.6891747719962811  0.0134934700990136  0.3385839919984489   T   T   T
 -0.0548194926801472  0.4768739874555373  0.0019356625944393   T   T   T
  0.3780903070851934  0.4801496565535706  0.6468409774006211   T   T   T
  0.7132284188278232  0.5027392357361372  0.3412707950948715   T   T   T
  0.4506848000857345  0.7399498073249980 -0.0252542344225825   T   T   T
  0.8943924104084728  0.7634052182015185  0.6776343753023140   T   T   T
  0.2147269276891451  0.7430917338335239  0.3691067566910391   T   T   T
  0.4419902959529439  0.2634994126907528 -0.0107564423487041   T   T   T
  0.9008143377103195  0.2374259333431984  0.6517111044804423   T   T   T
  0.1917672102140524  0.2498558815089434  0.3205678124100466   T   T   T
  0.1208252776389074  0.7378995074559916  0.9059789583552913   T   T   T
  0.6011237090963321  0.7267538841850189  0.8360270003344815   T   T   T
  0.5690530181389108  0.7278676850619059  0.5043100331473922   T   T   T
  0.8660689199273667  0.0104172499512111  0.7147271215239617   T   T   T
  0.0665951718257543  0.7280420824081659  0.5308002495605331   T   T   T
  0.6981973186578939  0.7683302968822487  0.1592462892614149   T   T   T
  0.2021752331789952 -0.0228255922781760  0.3160913595361380   T   T   T
  0.2699751012407026  0.2306281423054258  0.1189473192094105   T   T   T
  0.1408506823002052  0.3484828806428688  0.8207215285491444   T   T   T
  0.5978843602090622  0.2404010313006525  0.8521019624220184   T   T   T
  0.5743935969811071  0.2711715447889052  0.5030115158343277   T   T   T
  0.0574836080040375  0.2453330571160704  0.4977757517685249   T   T   T
  0.7506741782722669  0.2510586676328563  0.1547301722441125   T   T   T
  0.1715942539834360  0.5190113939505762  0.2916502533627593   T   T   T
