Sr Co O 
 1.0000000000000000
     3.9353772388970887    3.9959466317804835   -0.0209075305367027
     3.9353772388970887   -3.9959466317804835   -0.0209075305367027
     0.0623983207734789   -0.0000000000000001  -11.6039963653115326
 Sr  Co  O  
   6   6  14
Selective dynamics
Direct
 -0.0084664911367731 -0.0018905220318165  0.0137810078520222   T   T   T
  0.0000000000000000  0.0000000000000000  0.6666666666666652   T   T   T
  0.0084664911367731  0.0018905220318165  0.3195523254813103   T   T   T
  0.4981094779681827  0.4915335088632278  0.0137810078520222   T   T   T
  0.4999999999999992  0.5000000000000009  0.6666666666666653   T   T   T
  0.5018905220318156  0.5084664911367740  0.3195523254813104   T   T   T
  0.5080723623782500  0.0080723623782499  0.8281575324856910   T   T   T
  0.4919276376217500 -0.0080723623782501  0.5051758008476399   T   T   T
  0.5000000000000000 -0.0000000000000001  0.1666666666666662   T   T   T
 -0.0273153157918761  0.4726846842081255  0.8390606360123374   T   T   T
  0.0273153157918746  0.5273153157918764  0.4942726973209919   T   T   T
 -0.0000000000000009  0.5000000000000008  0.1666666666666663   T   T   T
  0.2301410751678928  0.1689206458650715  0.8453816423036526   T   T   T
  0.5000000000000002  0.0000000000000001  0.6666666666666653   T   T   T
  0.2693781349610275  0.7693781349610299  0.4610927400586524   T   T   T
  0.3310793541349279  0.2698589248321068  0.4879516910296778   T   T   T
  0.2669040414118759  0.7669040414118785  0.1799100377946296   T   T   T
  0.2682756482924682  0.2317243517075317  0.1666666666666663   T   T   T
  0.0535841782015898  0.5535841782015919 -0.0101164062778368   T   T   T
  0.7306218650389710  0.2306218650389716  0.8722405932746772   T   T   T
  0.6689206458650695  0.7301410751678939  0.8453816423036526   T   T   T
 -0.0000000000000007  0.5000000000000010  0.6666666666666653   T   T   T
  0.7698589248321057  0.8310793541349303  0.4879516910296780   T   T   T
 -0.0535841782015913  0.4464158217984104  0.3434497396111696   T   T   T
  0.7330959585881227  0.2330959585881233  0.1534232955387030   T   T   T
  0.7317243517075299  0.7682756482924697  0.1666666666666663   T   T   T
