Sr Co O 
 1.0000000000000000
    -4.2363471617492712    3.7867391140062363   -0.0768513451561697
     0.0191483201922823    3.6516397574027026    7.6275977679085782
     4.4640330623920876    7.7736940616201196   -0.2415276518722083
 Sr  Co  O  
   6   6  14
Selective dynamics
Direct
 -0.0000000000000000  0.0000000000000000  0.0000000000000000   T   T   T
  0.8188773694064163  0.5114942739610974  0.8273398721214397   T   T   T
  0.6661565055068158  0.0136093498689791  0.6855882384461558   T   T   T
  0.4999999999999997  0.4999999999999998  0.4999999999999997   T   T   T
  0.3338434944931840 -0.0136093498689789  0.3144117615538439   T   T   T
  0.1811226305935843  0.4885057260389012  0.1726601278785606   T   T   T
  0.7364657347339553  0.2038559440511064  0.2788110436172644   T   T   T
  0.5663736671821945  0.7531679995108945  0.0600251740611164   T   T   T
  0.4336263328177991  0.2468320004891051  0.9399748259388769   T   T   T
  0.2635342652660398  0.7961440559488926  0.7211889563827288   T   T   T
  0.1080709728192630  0.2536494691746319  0.5440756299875855   T   T   T
  0.8919290271807353  0.7463505308253674  0.4559243700124128   T   T   T
  0.8620172299835481 -0.0379215895883304  0.2882581525815591   T   T   T
  0.5729817829025199  0.2965811283350892  0.0958598865033090   T   T   T
  0.4270182170974760  0.7034188716649115  0.9041401134966877   T   T   T
  0.4999999999999979 -0.0000000000000000 -0.0000000000000005   T   T   T
  0.6402501011271202  0.2977701602980735  0.7549647915815139   T   T   T
  0.1089712429637951  0.2921863484741662  1.0006088585213804   T   T   T
  0.5379490124634219  0.7676602352161642  0.5551256547862146   T   T   T
  0.0219610337026923  0.7603980910244493  0.6361368220035090   T   T   T
  0.1379827700164520  0.0379215895883305  0.7117418474184403   T   T   T
  0.4620509875365815  0.2323397647838352  0.4448743452137889   T   T   T
  0.9780389662973045  0.2396019089755516  0.3638631779964872   T   T   T
  0.0000000000000014  0.4999999999999999  0.5000000000000002   T   T   T
  0.3597498988728801  0.7022298397019261  0.2450352084184869   T   T   T
  0.8910287570362021  0.7078136515258336 -0.0006088585213822   T   T   T
