Sr Co O 
 1.0000000000000000
    -3.9893805526018986    4.0837850662139017   -0.1646753735865423
     0.0476950350882550    3.7928176633977273    7.8218543311894484
     3.8378489942925804    8.0100788998899013   -0.1815202065123292
 Sr  Co  O  
   6   6  12
Selective dynamics
Direct
 -0.0736223026016725  0.0463474306466075 -0.0110268197649476   T   T   T
  0.8691382029333604  0.5167359040115950  0.7928838014971641   T   T   T
  0.6622621090847259  0.0120736320027449  0.6487877798442074   T   T   T
  0.5261515515669732  0.4571324056022590  0.5032037378224259   T   T   T
  0.3102002421849842 -0.0232744420708117  0.3651742141128441   T   T   T
  0.1877794287647820  0.4732976537023835  0.1739057785484841   T   T   T
  0.7814934868995536  0.2184841360576479  0.2622590701689229   T   T   T
  0.5613432942136558  0.7717432681020926  0.0916320360170175   T   T   T
  0.3676121681967929  0.2333839083245347  0.9136253487116437   T   T   T
  0.2631240809371074  0.7496728605067029  0.8037056661815724   T   T   T
  0.0688191785471953  0.2830015144840667  0.5655920353681823   T   T   T
  0.9583509881961830  0.7470114757930963  0.3382643057241684   T   T   T
  0.7754646373102424 -0.0300529100732056  0.3460400031981590   T   T   T
  0.0199368170763412  0.3173708334609410  0.0473981475734054   T   T   T
  0.4925027038231415  0.6944921101054053  0.9208371415190839   T   T   T
  0.4683988274895945  0.0155093890468357  0.0580583525481507   T   T   T
  0.7000097720731894  0.2796665353880738  0.7857596785343517   T   T   T
  0.2577770249946703  0.2244657156199611  0.7282095885255139   T   T   T
  0.0625980141839393  0.8014375928178940  0.6744075918894599   T   T   T
  0.4282281835547863  0.2777150028070559  0.3662826978262563   T   T   T
  0.9271973036372163  0.2144487727611283  0.4368761160999176   T   T   T
 -0.0849918740820097  0.5294401468587712  0.5007210587522662   T   T   T
  0.3257729447052497  0.7033514744258299  0.3097312436233469   T   T   T
  0.8944532323885973  0.7365455738674375  0.1276714387395561   T   T   T
