Sr Co O 
 1.0000000000000000
     3.6593409908839076    0.0000000000000000    0.0000000000000000
     0.0000000000000000    3.8401350111239667    0.0000000000000000
     0.0000000000000000    0.0000000000000000   24.7564365896674268
 Sr  Co  O  
   6   6  14
Selective dynamics
Direct
  0.0000000000000000  0.0000000000000000 -0.0052929545908003   T   T   T
  0.0000000000000000  0.0000000000000000  0.1741420836810821   T   T   T
  0.0000000000000000  0.0000000000000000  0.3343948757331487   T   T   T
  0.0000000000000000  0.0000000000000000  0.4948781116579767   T   T   T
  0.0000000000000000  0.0000000000000000  0.6685027190859212   T   T   T
  0.0000000000000000  0.0000000000000000  0.8313759225847123   T   T   T
  0.4999999999999995  0.4999999999999997  0.0932384765482311   T   T   T
  0.4999999999999995  0.4999999999999997  0.2547518372457732   T   T   T
  0.4999999999999995  0.4999999999999997  0.4140479698513944   T   T   T
  0.4999999999999995  0.4999999999999997  0.5736010494595164   T   T   T
  0.4999999999999995  0.4999999999999997  0.7521017164582928   T   T   T
  0.4999999999999995  0.4999999999999997  0.9112944256713029   T   T   T
  0.4999999999999995  0.4999999999999997  0.0210159825750793   T   T   T
  0.0000000000000000  0.4999999999999997  0.0995875786618717   T   T   T
  0.4999999999999995  0.4999999999999997  0.1763514745931747   T   T   T
  0.4999999999999995  0.0000000000000000  0.2545894249633200   T   T   T
  0.4999999999999995  0.4999999999999997  0.3343556654006184   T   T   T
  0.4999999999999995  0.0000000000000000  0.4135558513775258   T   T   T
  0.4999999999999995  0.4999999999999997  0.4933268977814483   T   T   T
  0.4999999999999995  0.0000000000000000  0.5699532964524560   T   T   T
  0.4999999999999995  0.4999999999999997  0.6455562181130212   T   T   T
  0.0000000000000000  0.4999999999999997  0.7406125951777448   T   T   T
  0.4999999999999995  0.0000000000000000  0.7443655898641277   T   T   T
  0.4999999999999995  0.4999999999999997  0.8320681024410552   T   T   T
  0.0000000000000000  0.4999999999999997  0.9236404965237379   T   T   T
  0.4999999999999995  0.0000000000000000  0.9206512485904839   T   T   T
