Sr Co O 
 1.0000000000000000
     3.8160049463606396   -0.0000000000000000    0.0000000000000000
    -0.0000000000000000    3.8160049463606347    0.0000000000000001
     0.0000000000000000    0.0000000000000007   32.7574724981520689
 Sr  Co  O  
   8   8  21
Selective dynamics
Direct
  0.0000000000000000 -0.0000000000000000 -0.0039308002937124   T   T   T
 -0.0000000000000000  0.0000000000000000  0.1170778515167291   T   T   T
  0.0000000000000000 -0.0000000000000000  0.2333319649395703   T   T   T
  0.0000000000000000 -0.0000000000000000  0.3879952622057337   T   T   T
  0.0000000000000000  0.0000000000000000  0.5093831554176309   T   T   T
 -0.0000000000000000 -0.0000000000000000  0.6302244799078234   T   T   T
 -0.0000000000000000 -0.0000000000000000  0.7522407886337588   T   T   T
  0.0000000000000000  0.0000000000000000  0.8725792491588795   T   T   T
  0.5000000000000001  0.4999999999999999  0.0593237666627978   T   T   T
  0.5000000000000001  0.4999999999999999  0.1774216593449401   T   T   T
  0.5000000000000001  0.4999999999999999  0.3091824115081944   T   T   T
  0.5000000000000001  0.4999999999999999  0.4486156076705817   T   T   T
  0.5000000000000001  0.4999999999999998  0.5698937431137641   T   T   T
  0.5000000000000001  0.4999999999999999  0.6910747428760464   T   T   T
  0.5000000000000001  0.5000000000000000  0.8123060571473892   T   T   T
  0.5000000000000001  0.5000000000000001  0.9322588364028490   T   T   T
 -0.0000000000000000  0.4999999999999999  0.0491300502714723   T   T   T
  0.5000000000000001  0.0000000000000000  0.0491300502714723   T   T   T
  0.5000000000000001  0.4999999999999999  0.1167107275670271   T   T   T
  0.0000000000000000  0.4999999999999999  0.1819838813440119   T   T   T
  0.5000000000000001 -0.0000000000000000  0.1819838813440119   T   T   T
  0.5000000000000001  0.4999999999999999  0.2553458154455907   T   T   T
  0.5000000000000001  0.4999999999999999  0.3624279037348506   T   T   T
  0.0000000000000000  0.4999999999999999  0.4381590714931277   T   T   T
  0.5000000000000001  0.0000000000000000  0.4381590714931277   T   T   T
  0.5000000000000001  0.4999999999999998  0.5039431612584859   T   T   T
 -0.0000000000000000  0.4999999999999998  0.5657450299790332   T   T   T
  0.5000000000000001 -0.0000000000000000  0.5657450299790331   T   T   T
  0.5000000000000001  0.4999999999999999  0.6284594908195418   T   T   T
  0.0000000000000000  0.4999999999999999  0.6915916815177244   T   T   T
  0.5000000000000001  0.0000000000000000  0.6915916815177247   T   T   T
  0.5000000000000001  0.4999999999999999  0.7547964195421804   T   T   T
 -0.0000000000000000  0.5000000000000000  0.8169973566576088   T   T   T
  0.5000000000000001 -0.0000000000000000  0.8169973566576089   T   T   T
  0.5000000000000001  0.5000000000000001  0.8773894865124763   T   T   T
 -0.0000000000000000  0.5000000000000001  0.9448670319283625   T   T   T
  0.5000000000000001  0.0000000000000000  0.9448670319283625   T   T   T
