Sr Co O 
 1.0000000000000000
     4.0661092917453789   -0.0342678219512816    4.1828998202392089
     3.8905856799606182   -3.9743873613821132   -3.9763220865333420
     3.8902057687556684    8.0603157267235659   -4.0853779231881422
 Sr  Co  O  
   6   6  12
Selective dynamics
Direct
  0.0448365356783747  0.0162594321257029  0.0252359810727574   T   T   T
  0.5511994387476397  0.7113574557686873  0.7914865230719905   T   T   T
  0.0037694654026080  0.2555762740209304  0.6683274504740369   T   T   T
  0.5063056309049413 -0.0515360177453643  0.4501717089168323   T   T   T
  0.0050017568618583  0.6572419943536586  0.3487021619371140   T   T   T
  0.4493124656148781  0.3816353767602507  0.2181571866805649   T   T   T
  0.5743193236331965  0.8731846180569252  0.1370586657690872   T   T   T
 -0.1196651780919562  0.4717809163222270  0.0173776042002799   T   T   T
  0.4993264344339222  0.1860608768311675  0.8652225677049407   T   T   T
  0.0818541827890196  0.8223538087401859  0.6648820705219828   T   T   T
  0.4532822554637845  0.4244964540216076  0.5411561547804341   T   T   T
 -0.0494709665729879  0.2041529975593246  0.3392496762368403   T   T   T
  0.4509324822382543  0.1116771638092971  0.0543737033307277   T   T   T
  0.7732715691277882  0.7264010758013955  0.0060621414791582   T   T   T
  0.8327321117148041  0.2683279774668921  0.8896789640959314   T   T   T
  0.2567165077551942 -0.0344770962173962  0.8014656637631263   T   T   T
  0.4067425900228541  0.3775575223926355  0.7346022900945857   T   T   T
  0.7910544634076815 -0.0916479998809388  0.6357611436966885   T   T   T
  0.2777280234307903  0.6801296423954172  0.5540787393024792   T   T   T
  0.2532177739631102  0.2346762691249298  0.4328173270117321   T   T   T
  0.3744179857278505  0.7297919693682855  0.2511991392257468   T   T   T
  0.7437636435011254  0.3780907770032687  0.4506710739652692   T   T   T
  0.8232581271311978 -0.0405612476861104  0.2767105965501850   T   T   T
  0.0160933100604547  0.3741363860837787  0.1788848253438008   T   T   T
