Sr Co O 
 1.0000000000000000
    -3.9476806031946508    3.7545326862891559    3.9464159403727948
    -3.9620898189738893   -3.8655246316899503    4.0459285766517059
     3.8987321416118443   -0.0901698204302797    7.9365664778044041
 Sr  Co  O  
   6   6  12
Selective dynamics
Direct
 -0.0072659463983510 -0.0132936077655192 -0.0047027999981531   T   T   T
  0.1935329207704242  0.1925462846215037  0.3272521335783251   T   T   T
  0.3066094890522887  0.3483662709226532  0.6822836419289987   T   T   T
  0.5061017144180087  0.4738746949780072  0.0005253560538120   T   T   T
  0.6781186699503973  0.6551437324974776  0.3196511529614458   T   T   T
  0.8249313614400073  0.8410893620895596  0.6785453828174297   T   T   T
  0.1661835323919904  0.6417298890220906  0.3436985610527697   T   T   T
  0.3219409098083936  0.8309410608609207  0.6374835189292120   T   T   T
  0.5162766421490044  0.0132266776094984  0.0091698629064639   T   T   T
  0.6502621075092129  0.1639881045742617  0.3651503074183596   T   T   T
  0.8311858184509251  0.3359420340058208  0.6597943952982563   T   T   T
  0.0009957973828958  0.4967310020660832 -0.0074915441870674   T   T   T
  0.0688600982395051  0.6032416278577629  0.1644684223772499   T   T   T
  0.2585245335930113  0.8009010934861969  0.4489590205156286   T   T   T
  0.4738459247925804  0.0216065780879694  0.5636857076771515   T   T   T
  0.6470684469873290  0.1821667251025643  0.8090560251362677   T   T   T
  0.2138000847449684  0.1856819321993556  0.0442716676373608   T   T   T
  0.6446977821661994  0.0520343099763304  0.1859525731696878   T   T   T
  0.4539801566039216  0.4446531875965908  0.2941907301847640   T   T   T
  0.8216949807120065  0.2276232221487436  0.4792799394057184   T   T   T
 -0.0505815561371497  0.5510820119064390  0.5178125896772099   T   T   T
  0.9188030500741236  0.3769295791780873  0.8356775641420119   T   T   T
  0.1965439543536204  0.6827304451625793  0.8193157873143785   T   T   T
  0.6972228598753543  0.7243971497020537 -0.0073633289744344   T   T   T
