Sr Co O 
 1.0000000000000000
     3.7042944289039506    0.0000000000000000    0.0000000000000000
     0.0000000000000000    8.1551865377264292   -0.0144774911387048
     0.0000000000000000   -0.0121742484692751   11.9494547520985499
 Sr  Co  O  
   6   6  13
Selective dynamics
Direct
  0.0000000000000000 -0.0143188116961948  0.0193154515862642   T   T   T
  0.0000000000000000 -0.0284684576046062  0.3434051901380718   T   T   T
  0.0000000000000000  0.0004636045509403  0.6571332078869234   T   T   T
  0.0000000000000000  0.5409364782850451 -0.0017070670914748   T   T   T
  0.0000000000000000  0.5310427025977931  0.3277348196065393   T   T   T
  0.0000000000000000  0.5166076969500002  0.6804655860617883   T   T   T
  0.4999999999999997  0.2592924043429761  0.1732577186619060   T   T   T
  0.4999999999999997  0.2469239516885294  0.5128984362746557   T   T   T
  0.4999999999999997  0.2759980033567698  0.8438854966170293   T   T   T
  0.4999999999999997  0.7550076553347451  0.1715584330703229   T   T   T
  0.4999999999999997  0.7584489828106079  0.5060826825819186   T   T   T
  0.4999999999999997  0.7648002254482029  0.8347502674437581   T   T   T
  0.4999999999999997  0.0456853642767302  0.1840245054186513   T   T   T
  0.0000000000000000  0.3060314609560567  0.4687330931387621   T   T   T
  0.4999999999999997  0.0051908310607605  0.4913793978140576   T   T   T
  0.4999999999999997  0.2385182025118750  0.6806858004802354   T   T   T
  0.0000000000000000  0.2420701819441953  0.9068491799919030   T   T   T
  0.4999999999999997  0.7767076668393308  0.0065363219567264   T   T   T
  0.0000000000000000  0.7588343343931014  0.1738358724031225   T   T   T
  0.4999999999999997  0.4729899979758301  0.1631189777122666   T   T   T
  0.4999999999999997  0.7355884946338653  0.3401166668163380   T   T   T
  0.0000000000000000  0.7045598049772719  0.5051261019621005   T   T   T
  0.4999999999999997  0.7508154464704321  0.6662575559125224   T   T   T
  0.0000000000000000  0.8362451044135939  0.8346832015342226   T   T   T
  0.4999999999999997  0.5200286628079643  0.8432063308574212   T   T   T
