Sr Co O 
 1.0000000000000000
    -3.9679049218259506    0.1977054494779670   -3.9679049218259514
     0.1958707532465827   -7.7763685659045318    0.1958707532465828
    -4.1159742584936900    3.7893315582132834    7.8880084270730570
 Sr  Co  O  
   6   6  14
Selective dynamics
Direct
  0.0146629368917161  0.0146629368917161  0.0293258737834323   T   T   T
  0.6666666666666662  0.1666666666666665  0.3333333333333325   T   T   T
  0.3186703964416167  0.3186703964416167  0.6373407928832334   T   T   T
  0.0131911065462449  0.5131911065462447  0.0263822130924897   T   T   T
  0.6666666666666667  0.6666666666666670  0.3333333333333328   T   T   T
  0.3201422267870881  0.8201422267870879  0.6402844535741762   T   T   T
  0.4644308590527891  0.7207993955373961  0.0052511368489938   T   T   T
  0.1647224047806694  0.9187676660557980  0.3333333333333331   T   T   T
  0.7925130555371276  0.0488815920217350  0.6614155298176718   T   T   T
  0.5408202777962058  0.2844517413115976  0.0052511368489932   T   T   T
  0.1686109285526645  0.4145656672775357  0.3333333333333331   T   T   T
  0.8689024742805438  0.6125339377959367  0.6614155298176712   T   T   T
  0.7993892211852860  0.8055278388329719  0.1298697674058019   T   T   T
  0.3378170437263900  0.8587503764864481  0.1598676113305123   T   T   T
  0.5112827657292108  0.0322160984892683  0.5067990553361532   T   T   T
  0.1666666666666668  0.1666666666666665  0.3333333333333330   T   T   T
  0.0028527871128162  0.0089914047605029  0.5367968992608646   T   T   T
  0.6666666666666654  0.1666666666666663  0.8333333333333324   T   T   T
  0.8220505676041231  0.3011172348440652  0.1598676113305124   T   T   T
  0.4643894582823083  0.4643894582823080 -0.0712210834353842   T   T   T
  0.3304805462205168  0.3243419285728304  0.1298697674058019   T   T   T
  0.5339441121480487  0.5278054945003616  0.5367968992608639   T   T   T
  0.1666666666666664  0.6666666666666664  0.3333333333333329   T   T   T
 -0.0044837103930571  0.4745829568468851  0.5067990553361532   T   T   T
  0.1666666666666665  0.6666666666666663  0.8333333333333331   T   T   T
  0.8689438750510254  0.8689438750510253  0.7378877501020497   T   T   T
