Sr Co O 
 1.0000000000000000
    -3.8892110223976575    4.0066332682628900    3.9791562215839225
    -3.9270785012003575   -4.0347125283724781    3.9697065916410890
     3.8187072739289669    0.0286959535008526    7.8606067321316244
 Sr  Co  O  
   6   6  13
Selective dynamics
Direct
  0.0131818714816455  0.0273593210727484 -0.0195980512251580   T   T   T
  0.1746519471169969  0.1628507801292629  0.3531796503787299   T   T   T
  0.3191663246974749  0.3696883998306961  0.6825311039412433   T   T   T
  0.4839117171673258  0.5084031511654163 -0.0145518085433014   T   T   T
  0.6496215808506995  0.6364643744513048  0.3513002321925711   T   T   T
  0.8354638657909943  0.8065214320639549  0.6497441198869262   T   T   T
  0.1942074896562847  0.6438976887356093  0.3314421805811498   T   T   T
  0.3285414888177576  0.8380386999699027  0.6512063316578866   T   T   T
  0.4952736632579371 -0.0302679837534792  0.0331789328396853   T   T   T
  0.6629458257489719  0.1881619541375981  0.3550575412754730   T   T   T
  0.8505676626530361  0.3413421935482842  0.6541602452491082   T   T   T
 -0.0373538535834017  0.5236438122487551 -0.0004018369463846   T   T   T
  0.2852733921483101  0.8195098835671905  0.1333384521439862   T   T   T
  0.2056294596587027  0.7726593856119093  0.4947505101678535   T   T   T
  0.5409221955284679 -0.0376041391822764  0.4508696526999336   T   T   T
  0.1422725953969039  0.1017030405078108  0.6708264457002329   T   T   T
  0.3408900015651564  0.2296260981878218 -0.0300829745085278   T   T   T
  0.8783929774735066  0.2978450583079587  0.1913222323873308   T   T   T
  0.4182752391568745  0.3980912519784878  0.2931445150851241   T   T   T
  0.7225305166996908  0.2015789778078696  0.5609782568979013   T   T   T
 -0.0270380589612829  0.5260710939669503  0.4525041819155457   T   T   T
  0.5583619401962646  0.6033112914933144  0.6747570259052689   T   T   T
  0.8830778179475071  0.4195353229268873  0.8420545804390956   T   T   T
  0.1595547481064966  0.6877562362745854  0.8517389079999934   T   T   T
  0.7550108879686477  0.7971460626443543  0.0532161890857674   T   T   T
