Sr Co O 
 1.0000000000000000
     4.1371869880128145   -0.0292023044914012    3.9928549764395713
     4.0401196636383947   -4.0578040478850639   -3.8671023374209357
     4.0270531375380667    8.1768321364758663   -3.9408411920785098
 Sr  Co  O  
   6   6  12
Selective dynamics
Direct
 -0.0569613493407925 -0.0063654371692982  0.0220864431695802   T   T   T
  0.4370733437965347  0.6994140525489484  0.8118289047539131   T   T   T
  0.0340411090197676  0.3542521747508038  0.6284330883904846   T   T   T
  0.5285971932529976 -0.0475253767760739  0.4712084213129406   T   T   T
  0.0159527035293731  0.6953478176130448  0.3319832065219081   T   T   T
  0.5400202013292993  0.3241140981348951  0.2247869624337562   T   T   T
  0.4740952259848595  0.8297947286704139  0.1527238738942252   T   T   T
  0.1374895408072812  0.4638978316248502  0.0348543635590207   T   T   T
  0.3624930371640931  0.1442832099523361  0.8768863500939009   T   T   T
  0.0027197968227122  0.8393341835447587  0.6403067028460152   T   T   T
  0.5267325148359078  0.5133038377759099  0.4987610678667145   T   T   T
  0.0366945073350003  0.1952412326796335  0.3498682210136410   T   T   T
  0.1878344797391018  0.7203343961265296  0.0822185478667466   T   T   T
  0.5317204604488814 -0.0304468225165507 -0.0215710711121494   T   T   T
  0.2492794328374432  0.3968853767508516  0.8563254209469779   T   T   T
  0.1378627951608238 -0.0134258744482244  0.7885417800723736   T   T   T
  0.7351468156731910  0.6688494340844003  0.6357635496631638   T   T   T
 -0.0333386706756299 -0.0008911783942392  0.4814496248425975   T   T   T
  0.2550900716378574  0.6496869000269407  0.5859044766039476   T   T   T
  0.3381289304148619  0.2751062244290080  0.4416523125076441   T   T   T
  0.4485121804734348  0.6771797013480272  0.3088101005077991   T   T   T
  0.8144248626084385  0.4068819773448071  0.4062929586676213   T   T   T
  0.7070715459101033 -0.0251040277447770  0.2342127515276852   T   T   T
  0.0893194145361506  0.2698514980600233  0.1566719287935095   T   T   T
