Sr Co O 
 1.0000000000000000
    -4.0262535263777046    0.0596309353261873   -3.9266373811402171
    -0.0643005233904323   -7.9275587977661051    0.1770218896367663
    -3.7642668187327497    3.7479879706234032    7.5406657589634074
 Sr  Co  O  
   6   6  12
Selective dynamics
Direct
 -0.0162377599659358  0.0015872520697274 -0.0087331602213390   T   T   T
  0.6785892466711904  0.2071829673054492  0.3594980072612393   T   T   T
  0.3236489573997749  0.3644302163219280  0.6810406227073761   T   T   T
  0.0092819627097445  0.4859267453194542  0.0072939201986467   T   T   T
  0.6749603503017862  0.6266469478106654  0.3206702440793519   T   T   T
  0.3110642936883014  0.7994195907328082  0.6290392851244875   T   T   T
  0.4923244480984574  0.7660696846497744  0.0038076765685987   T   T   T
  0.1338725125507381  0.9050723587819534  0.3296850483453519   T   T   T
  0.7593373822136318  0.0674404966920646  0.6378696709868339   T   T   T
  0.5208046084320055  0.2421646782677820  0.0117944768274506   T   T   T
  0.1837216980440749  0.4187076132561725  0.3323623369032963   T   T   T
  0.8568454419231861  0.5938075639878091  0.6750691680756582   T   T   T
  0.8035599768020261  0.8894041747723659  0.2068190060673274   T   T   T
  0.5173016004564785 -0.0317278563778661 -0.0779786340465218   T   T   T
  0.4040657605932092  0.0583828273188490  0.5093589678767452   T   T   T
  0.8875747083175868  0.3053237025953677  0.6983426312451896   T   T   T
  0.8556278369056562  0.3130304128007024  0.1624117979125546   T   T   T
  0.5312834360239714  0.4942346178231695 -0.0156860625417898   T   T   T
  0.3270038256526447  0.2720461444498711  0.1616007925362553   T   T   T
  0.5127443593639944  0.5053078080508849  0.5292998326288402   T   T   T
  0.2265650412151574  0.6718857952869256  0.3054215867581881   T   T   T
  0.0150119675156539  0.4890694120471114  0.4995018940675037   T   T   T
  0.1291943095546577  0.6976351238367529  0.8920198795150087   T   T   T
  0.8618540589124392  0.8569517753976600  0.6494910298685606   T   T   T
