Sr Co O 
 1.0000000000000000
     4.0022602052100416   -0.0000000000000003    4.0022602052100380
    -3.8661465261960215    3.8955752668505848    3.8661465261960202
    -3.9857848952533508   -7.8941990876788495   -0.0164753099566868
 Sr  Co  O  
   5   5  10
Selective dynamics
Direct
  0.0080815549192332 -0.0380304720882143 -0.0056791174184328   T   T   T
  0.6005996373402599  0.4000000000000007  0.2000000000000003   T   T   T
  0.2137606723376650  0.8380304720882159  0.4056791174184335   T   T   T
  0.7971487778756216  0.1906661449963509  0.6196948531483134   T   T   T
  0.3774539247273078  0.6093338550036510  0.7803051468516865   T   T   T
  0.3329116595842276  0.0981226319315388  0.7785523094375126   T   T   T
  0.0407024419575978  0.5159077359467882  0.0068596810267894   T   T   T
  0.6412762240381328  0.9000000000000012  0.2000000000000002   T   T   T
  0.2338427609308080  0.2840922640532130  0.3931403189732110   T   T   T
  0.7543593501467153  0.7018773680684631  0.6214476905624865   T   T   T
  0.0660072547774901  0.8465720505358622  0.6486031175037119   T   T   T
  0.2170417045700842  0.2574254164735318  0.9590093717635843   T   T   T
  0.8662490866398630  0.6657308661919369  0.1608341973886534   T   T   T
  0.3387320409704078  0.7197854313629398  0.0600800939328904   T   T   T
  0.4786519470375181  0.0802145686370611  0.3399199060671100   T   T   T
  0.9054148892512111  0.1342691338080641  0.2391658026113470   T   T   T
  0.2307075280835820  0.2554493004656742  0.6090854411526967   T   T   T
  0.4580323328065008  0.5425745835264698  0.4409906282364154   T   T   T
  0.6174041372737791  0.9534279494641403  0.7513968824962876   T   T   T
  0.8216220869308850  0.5445506995343272  0.7909145588473026   T   T   T
