Sr Co O 
 1.0000000000000000
    -4.0153805900727324    4.0306054654218242    0.1629614398478879
    -0.2426812064316829    4.1068265199451126    8.1316843634247000
     3.7922299198383089    7.8346483383351195    0.0639222991269246
 Sr  Co  O  
   6   6  12
Selective dynamics
Direct
 -0.0268482325337979  0.0042746499198280  0.0128462090519118   T   T   T
  0.8823924861576373  0.5389403856488283  0.8082953620127065   T   T   T
  0.6803309118211377 -0.0079969954909381  0.6614959097318226   T   T   T
  0.5022257679488669  0.5369121544568292  0.5049563981971332   T   T   T
  0.3269052130733764 -0.0187170903003734  0.3346450317613744   T   T   T
  0.1688125836287011  0.5522986766909656  0.1724346394571468   T   T   T
  0.7841621086095339  0.2823899295981048  0.2224293403694675   T   T   T
  0.6100496924609476  0.7369334061234675  0.0982925021532765   T   T   T
  0.3930523829452059  0.2960784369132413  0.9889078664808942   T   T   T
  0.2458561284106913  0.7740675337522680  0.7423498801481008   T   T   T
  0.0603584132818798  0.2554244375164221  0.5631946027917138   T   T   T
  0.9255952152835861  0.7478823840472443  0.4219987570881696   T   T   T
  0.1204506271683338  0.1951917655011693  0.0771708209433909   T   T   T
  0.5872036360986448  0.1801631492745199  0.1600970724580426   T   T   T
  0.6374430285733004  0.5162644296945788  0.1075307687370576   T   T   T
  0.8969910829489182  0.7951483536031612  0.9087585269699445   T   T   T
  0.2007702357647929  0.0446236162475474  0.6994925042330105   T   T   T
  0.3552889005990319  0.4986846952090209  0.8225403291703610   T   T   T
  0.6002861117393158  0.7649818171381400  0.6118521380626504   T   T   T
  0.0910176071268160  0.7860872364674453  0.5584982592914629   T   T   T
  0.8107330369519812  0.2491590542824977  0.4567302838029485   T   T   T
  0.0894121107150494  0.4684399405461533  0.5072694956192521   T   T   T
  0.2419297951873783  0.7911893614489208  0.2055646542952212   T   T   T
  0.7322477295087448  0.7615787835508355  0.2693152527701588   T   T   T
