Sr Co O 
 1.0000000000000000
    -3.9382371157488416    3.9230172596638515   -0.0105595049197635
    -0.0350266415239639    3.8668353840577927    7.9128486648848018
     3.9513256170442608    7.8567426346059923   -0.0800681143534038
 Sr  Co  O  
   6   6  14
Selective dynamics
Direct
  0.0315562025104075  0.0160574573585718 -0.0187085800846468   T   T   T
  0.8393558887586584  0.4933803026531805  0.8524629439155947   T   T   T
  0.6486181831250043 -0.0092551843072854  0.7042863918454498   T   T   T
  0.5035697275322472  0.4643730491171594  0.5417857177782216   T   T   T
  0.2840844730487536  0.0149637400175220  0.3357502833970879   T   T   T
  0.2000248689519050  0.5278574707458130  0.1420895091249635   T   T   T
  0.7638559559932342  0.2856050328919293  0.2367850035919294   T   T   T
  0.5614651597666291  0.7560653765633322  0.1562787800945590   T   T   T
  0.4207002655511253  0.2465164425966684  0.9338755534131294   T   T   T
  0.2347305322465272  0.7569568794853698  0.7399486108887788   T   T   T
  0.0651770040074005  0.2389928994273038  0.6044190964199224   T   T   T
  0.9469781774991121  0.7066672254023132  0.4339416780519177   T   T   T
  0.0870725105977629  0.2273792336111894  0.0870556358914474   T   T   T
  0.7121700778904873  0.5359598273698271  0.1553314641462615   T   T   T
  0.4025545946020878  0.7565016751562574  0.8866580369405861   T   T   T
  0.5927361002564646 -0.0335234475544375  0.0146773435348485   T   T   T
  0.7450270608959937  0.2697098256151506  0.7820814664622650   T   T   T
  0.2852731404096989  0.2288181891540197  0.7539487419640044   T   T   T
  0.2844400454904648  0.5272767565440596  0.8287372071449708   T   T   T
  0.0009422574204755  0.7574527561260023  0.6109258461551377   T   T   T
  0.1988364110902889 -0.0085927678233591  0.6422464408652820   T   T   T
  0.5319491031744686  0.2575394780912024  0.1457298507828476   T   T   T
  0.8341481853927980  0.2160348243661211  0.4434301264544027   T   T   T
  0.0891781615633487  0.4683643880593126  0.4648723162577376   T   T   T
  0.1842824110958814  0.7984666178807808  0.2335766122755051   T   T   T
  0.6346069688929387  0.7504321162877060  0.3711470827378821   T   T   T
