Sr Co O 
 1.0000000000000000
     3.7599926767189489    0.0000000000000000    0.0000000000000000
     0.0000000000000000    8.2134765033612922    0.0000000000000000
     0.0000000000000000    0.0000000000000000   11.9899438158536729
 Sr  Co  O  
   6   6  12
Selective dynamics
Direct
 -0.0000000000000000  0.0223743582929500 -0.0381942620751907   T   T   T
  0.0000000000000000  0.0020656484753119  0.3678849817863477   T   T   T
 -0.0000000000000000 -0.0179600203532924  0.6631770589215736   T   T   T
 -0.0000000000000000  0.4776256417070496 -0.0381942620751907   T   T   T
 -0.0000000000000000  0.4979343515246882  0.3678849817863477   T   T   T
  0.0000000000000000  0.5179600203532928  0.6631770589215736   T   T   T
  0.5000000000000000  0.2499999999999998  0.1683751662673279   T   T   T
  0.5000000000000000  0.2499999999999998  0.5046855202759297   T   T   T
  0.5000000000000000  0.2499999999999998  0.8148838203141093   T   T   T
  0.5000000000000000  0.7500000000000001  0.1714892928975482   T   T   T
  0.5000000000000000  0.7500000000000001  0.5051569955579422   T   T   T
  0.5000000000000000  0.7500000000000001  0.8338225348476825   T   T   T
  0.0000000000000000  0.2499999999999998  0.1098320680986299   T   T   T
  0.5000000000000000  0.2499999999999998  0.3214313975662752   T   T   T
  0.0000000000000000  0.2499999999999998  0.5292541703559352   T   T   T
  0.5000000000000000  0.0172014711012166  0.5109728194134966   T   T   T
  0.0000000000000000  0.2499999999999998  0.8134902079882731   T   T   T
  0.5000000000000000  0.0190442183736973  0.8320216585614392   T   T   T
  0.5000000000000000  0.7500000000000001  0.3217478708661851   T   T   T
  0.0000000000000000  0.7500000000000001  0.4991256880774503   T   T   T
  0.5000000000000000  0.4827985288987833  0.5109728194134966   T   T   T
  0.5000000000000000  0.7500000000000001  0.6730788944999540   T   T   T
  0.0000000000000000  0.7500000000000001  0.8952351742461352   T   T   T
  0.5000000000000000  0.4809557816263023  0.8320216585614392   T   T   T
