Sr Co O 
 1.0000000000000000
    -3.8203160956847682    4.4863961566160553    0.0232998840331029
     0.0346488320852351    4.5558824983469997    7.6276668217584991
     3.8603162242347397    9.0018208469900252    0.0809196371660886
 Sr  Co  O  
   6   6  12
Selective dynamics
Direct
  0.0528718246057709 -0.0136898208911880 -0.0075447230593332   T   T   T
  0.7612354663216567  0.5582408444228725  0.7875804807143386   T   T   T
  0.6574839706191622  0.0087585972602800  0.6656451047789336   T   T   T
  0.4743759646228321  0.5044040940103985  0.5065630998908132   T   T   T
  0.3480912141533331 -0.0261246298016100  0.3458052467624786   T   T   T
  0.1305553724353019  0.5106639597843162  0.2087043535233074   T   T   T
  0.7371878890009058  0.2010890579391778  0.3053766367854682   T   T   T
  0.5665944335674656  0.7525334645176982  0.1031129736269771   T   T   T
  0.2847444987997244  0.3545305300409776  0.8877549005564176   T   T   T
  0.2237962743210164  0.7808318619876359  0.7254332696861838   T   T   T
  0.0523163676816077  0.2455700342764173  0.5606380803888645   T   T   T
  0.9300674198792361  0.7582080067407472  0.4195001057864631   T   T   T
  0.9773237153259129  0.0157291996836520  0.2501681898228841   T   T   T
  1.2767803312880310  0.5391404995507371  0.9154565975261740   T   T   T
  0.4943455285151884  0.7842640314498460  0.9277275040297496   T   T   T
  0.2912401159259443  0.2380020968196264  0.7840710531182560   T   T   T
  0.5714987121764391  0.8180360394945382  0.5687133204809683   T   T   T
  0.0830836495664706  0.7494891054880739  0.5931726948298466   T   T   T
  0.0204127462708588  0.0143674445317037  0.7349500614295199   T   T   T
  0.3811352765865869  0.2379748165271729  0.3645712993636188   T   T   T
  0.8434984206767429  0.2790315993458602  0.4115097941136950   T   T   T
 -0.1092844706961709  0.4866650579443218  0.5463025855917791   T   T   T
  0.2818477393718527  0.6697252964288322  0.2849946100690945   T   T   T
  0.7521308262177239  0.7825586485159104  0.1931261615521911   T   T   T
