Sr Co O 
 1.0000000000000000
    -3.9347284804399854    3.9112398561920192    3.9069875087382644
    -3.9149702078091750    0.0126242254972362   -7.8070020674130722
     0.0264454874256426   -7.7919003258284363    3.9029229713550015
 Sr  Co  O  
   7   7  18
Selective dynamics
Direct
 -0.0014702244180153 -0.0017836010696636  0.0059216693681423   T   T   T
  0.3041040301792667  0.7300475669526869  0.1706534329186312   T   T   T
  0.5742065605472967  0.4280130882673375  0.2823940585044903   T   T   T
  0.8534626622076630  0.1336088762502216  0.4196661753597328   T   T   T
  0.1343401969696772  0.8550771095365508  0.5592644511370255   T   T   T
  0.4467134209581440  0.5691175460127404  0.6993341887918358   T   T   T
  0.6784560425239594  0.2785967534956526  0.8521491256576201   T   T   T
  0.8938872757419234  0.5636737310621275  0.6962916378648319   T   T   T
  0.2233372562926364  0.2698967746965207  0.8475030198127179   T   T   T
  0.5228878650231827  0.0041553990875358  0.0049345640264047   T   T   T
  0.7898938664837628  0.7153947321854855  0.1491562249351406   T   T   T
  0.0731810570703009  0.4337185209624347  0.3021589341803413   T   T   T
  0.3516577502172358  0.1389021639883350  0.4187549049073044   T   T   T
  0.6401924703649118  0.8670941066524452  0.5773098760169126   T   T   T
  0.8082713847241706  0.7434584536105926  0.6612541408876776   T   T   T
  0.9049348681373738  0.6187975840626259  0.9207995400652224   T   T   T
  0.4499618372883985  0.4904340395983540  0.0084995206203612   T   T   T
  0.3347187871136572  0.1276822090609380  0.9306763435966060   T   T   T
  0.8089802146967198  0.2266382243734785  0.1448273892569144   T   T   T
  0.4250664721760389  0.0339852136054038  0.1845443502653907   T   T   T
  0.6437540409868251  0.8295975609292364  0.0460327356983573   T   T   T
  0.0792679754471829  0.9365060646782607  0.2846781059026852   T   T   T
  0.7300997544808264  0.8134463402940810  0.3768808592726284   T   T   T
  0.9187964550109825  0.5708900959898821  0.2182841057381072   T   T   T
  0.3472399736488512  0.6213859003382550  0.4018578410722591   T   T   T
  0.0509206232898668  0.5227781034397437  0.5574552593656359   T   T   T
  0.2266769720619076  0.2816028691149484  0.3228717789269089   T   T   T
  0.6386023973681968  0.3393225132498582  0.5517866641108140   T   T   T
  0.2676476888577594  0.2381455213016082  0.6364944918517645   T   T   T
  0.4861587098221206 -0.0006280909722529  0.5112151728197660   T   T   T
  0.9323029087181786  0.1374677982281758  0.7617750458203986   T   T   T
  0.5331772478648082  0.9115481741326803  0.7802886621359042   T   T   T
