Sr Co O 
 1.0000000000000000
     3.6159888482447662    0.0000000000000000    0.0000000000000000
     0.0000000000000000    8.0553141392438867    0.0000000000000000
     0.0000000000000000    0.0000000000000000   12.9086075627353729
 Sr  Co  O  
   6   6  12
Selective dynamics
Direct
 -0.0000000000000000  0.0133560893174653 -0.0194232342759415   T   T   T
 -0.0000000000000000 -0.0347517385339120  0.3682321754111125   T   T   T
 -0.0000000000000000 -0.0091621620088707  0.6587035332792648   T   T   T
  0.0000000000000000  0.4866439106825350 -0.0194232342759415   T   T   T
  0.0000000000000000  0.5347517385339128  0.3682321754111125   T   T   T
  0.0000000000000000  0.5091621620088714  0.6587035332792648   T   T   T
  0.5000000000000004  0.2499999999999999  0.1802312086508801   T   T   T
  0.5000000000000004  0.2499999999999999  0.4978370485587535   T   T   T
  0.5000000000000004  0.2499999999999999  0.8045650853393086   T   T   T
  0.5000000000000004  0.7500000000000007  0.1645427999083404   T   T   T
  0.5000000000000004  0.7500000000000007  0.5261132898218716   T   T   T
  0.5000000000000004  0.7500000000000007  0.8302908058396278   T   T   T
  0.5000000000000004  0.2499999999999999  0.0400425874446835   T   T   T
  0.0000000000000000  0.2499999999999999  0.4238321261853976   T   T   T
  0.5000000000000004 -0.0093139886620989  0.5083581510500234   T   T   T
  0.5000000000000004  0.2499999999999999  0.6579388760730688   T   T   T
  0.5000000000000004  0.0320656164313545  0.8447857287237236   T   T   T
  0.0000000000000000  0.7500000000000007  0.1102311530008500   T   T   T
  0.5000000000000004  0.7500000000000007  0.3086236611358428   T   T   T
  0.0000000000000000  0.7500000000000007  0.5055848096599509   T   T   T
  0.5000000000000004  0.5093139886620994  0.5083581510500234   T   T   T
  0.5000000000000004  0.7500000000000007  0.6800063842173711   T   T   T
  0.0000000000000000  0.7500000000000007  0.8821807052658681   T   T   T
  0.5000000000000004  0.4679343835686451  0.8447857287237236   T   T   T
