Sr Co O 
 1.0000000000000000
    -3.6661211311460558    0.0000000000000000    0.0000000000000000
     0.0000000000000000    4.4552706850491486    7.3383653470589296
     0.0000000000000000    9.0097831961019761   -3.6881928257628189
 Sr  Co  O  
   5   5  10
Selective dynamics
Direct
 -0.0000000000000000 -0.0050214844636438  0.0150051509800113   T   T   T
 -0.0000000000000000  0.3697489200842850  0.7834932831370305   T   T   T
 -0.0000000000000000  0.7812881334356313  0.5951690153866694   T   T   T
 -0.0000000000000000  0.2087678390258773  0.4347888883305143   T   T   T
 -0.0000000000000000  0.6202245785115968  0.2465248947494627   T   T   T
  0.4999999999999998  0.3127150191812216  0.1109864189896991   T   T   T
  0.4999999999999998  0.6772715458716628  0.9189943584616054   T   T   T
  0.4999999999999998  0.0600691783295397  0.7022443429714138   T   T   T
  0.4999999999999998  0.4950206222970910  0.5150351025711415   T   T   T
  0.4999999999999998  0.9299420362580832  0.3277461961058008   T   T   T
  0.4999999999999998  0.2162165480767497 -0.0381852380181360   T   T   T
  0.4999999999999998  0.6055951575089805  0.7576671240314007   T   T   T
 -0.0000000000000000  0.0012380638687169  0.7626596057653430   T   T   T
  0.4999999999999998 -0.0049737652681885  0.5149881472502947   T   T   T
  0.4999999999999998  0.2874364287293244  0.6280307323644619   T   T   T
 -0.0000000000000000  0.4949989814093764  0.5149842043312389   T   T   T
  0.4999999999999998  0.3844003850275102  0.2723204109776022   T   T   T
  0.4999999999999998  0.7025821611584661  0.4019951438535126   T   T   T
 -0.0000000000000000  0.9887507636035811  0.2673462381342256   T   T   T
  0.4999999999999998  0.7737286793981388  0.0682058377994070   T   T   T
