Sr Co O 
 1.0000000000000000
    -3.8190639884510853    4.2141570596153510    3.7600384639778892
    -3.8086661303218206   -4.1946527215219014    3.7481163289609412
     3.8150895750781797    0.0036540423464784    7.5106504189874910
 Sr  Co  O  
   6   6  13
Selective dynamics
Direct
 -0.0068702068657213 -0.0273648910020268  0.0052205078859470   T   T   T
  0.1735368735323874  0.1940315576686929  0.3281128254473851   T   T   T
  0.3601693161015760  0.3445870637166091  0.6529316926133972   T   T   T
  0.5023410849944905  0.4788064010779183  0.0169412208811830   T   T   T
  0.6643255816721728  0.6878602655887456  0.3163921124521423   T   T   T
  0.8064973505650878  0.8220796029500550  0.6804016407199288   T   T   T
  0.1361616120822764  0.6859389962151451  0.3535382828181965   T   T   T
  0.3383521885125405  0.8088884924915006  0.6688129103795464   T   T   T
  0.4817400410572806  0.0093331457151397 -0.0049487722753226   T   T   T
  0.6849266256093852  0.1573335209515270  0.3382821056086541   T   T   T
  0.8283144781541234  0.3577781741751639  0.6645204229537798   T   T   T
  0.0305050545843873  0.4807276704515190 -0.0202049494848707   T   T   T
  0.0833333333333320  0.5833333333333326  0.1666666666666628   T   T   T
  0.9083989238887067  0.9350327287631979  0.3227434354136750   T   T   T
  0.2946204473426955  0.8218228162919976  0.4482327354667892   T   T   T
  0.4047933751678573  0.9743804790234916  0.7984452294204893   T   T   T
  0.2582677427779582  0.2316339379034676  0.0105898979196499   T   T   T
  0.5833333333333329  0.0833333333333335  0.1666666666666654   T   T   T
  0.4882977177527260  0.3936833318244781  0.3308770554906025   T   T   T
  0.7618732914988070  0.1922861876431733  0.5348881039128359   T   T   T
  0.0605914637085345  0.4542342053393159  0.5233310948264401   T   T   T
  0.5833333333333320  0.5833333333333323  0.6666666666666627   T   T   T
  0.8720462193239684  0.3448438503746681  0.8851005978665377   T   T   T
  0.1060752029581294  0.7124324613273483  0.8100022385068869   T   T   T
  0.6783689489139383  0.7729833348421867  0.0024562778427217   T   T   T
