Sr Co O 
 1.0000000000000000
     4.0865851308683627    0.1608581630988232    4.0065237866936281
     3.8428117693822510   -3.9874153803088013   -3.9243176025886117
     4.0661921136483761    7.9346555125651088   -3.6673020332295829
 Sr  Co  O  
   6   6  12
Selective dynamics
Direct
  0.0174495548502500  0.0308739232047956 -0.0020291827606897   T   T   T
  0.5111230070445100  0.6783438435116175  0.8363371154092494   T   T   T
 -0.0020714663296074  0.3424431063164416  0.6814976327336780   T   T   T
  0.5154167766920659 -0.0137813480077264  0.5016955469210294   T   T   T
  0.0208482839824249  0.6074827561316690  0.3654719227104581   T   T   T
  0.5295380363732028  0.3451624099717974  0.1910041528483304   T   T   T
  0.4534692505254864  0.8226623590505868  0.1633908508524482   T   T   T
  0.0577717341729742  0.4716456475473907  0.0151753006553478   T   T   T
  0.5584332753034545  0.1865220740454939  0.8818756291449708   T   T   T
 -0.0271858484377717  0.8381986117316091  0.6435930358072338   T   T   T
  0.5012134440949815  0.5034110070469890  0.5100723455202065   T   T   T
  0.0185666190900774  0.1715957189192937  0.3564469042004393   T   T   T
  0.2065901616735740  0.7250656323625589  0.0473750621870422   T   T   T
  0.7454706445507642  0.4250983650434882  0.9485928569495000   T   T   T
  0.2574058756512411  0.3033296296914271  0.8723496528279500   T   T   T
  0.7711602040292399  0.0226541666954945  0.7608371897673963   T   T   T
  0.7530272607787798  0.6092603695854690  0.6192333609980946   T   T   T
 -0.0470378875128298 -0.0647511336515784  0.4507072430059660   T   T   T
  0.2678140909142224  0.7053689353578101  0.6361875740164886   T   T   T
  0.2559622904636855  0.3060700563685522  0.4725113775477370   T   T   T
  0.4734211475670985  0.6903994793739886  0.3241161746473537   T   T   T
  0.7267812920339506  0.3109481549012946  0.4061391368241608   T   T   T
  0.5910552986236756  0.0202354073065473  0.0573546966303904   T   T   T
  0.0937769365015203  0.2950940903769385  0.1767310817773928   T   T   T
