Sr Co O 
 1.0000000000000000
     3.5879587454235482    0.0000000000000000    0.0000000000000000
     0.0000000000000000    8.7181764486803601    0.0818128905446369
     0.0000000000000000    0.1138142252180379   11.7806844315039427
 Sr  Co  O  
   6   6  12
Selective dynamics
Direct
  0.0000000000000000 -0.0063040309571091 -0.0247989797015997   T   T   T
  0.0000000000000000  0.0342620537141960  0.3767703628387583   T   T   T
  0.0000000000000000  0.0220195278383558  0.6765028298414708   T   T   T
  0.0000000000000000  0.5721043004367554 -0.0041979117231783   T   T   T
  0.0000000000000000  0.5074921365882913  0.3493982670055611   T   T   T
  0.0000000000000000  0.4559218750926523  0.6844053026967390   T   T   T
  0.5000000000000026  0.2996578076290884  0.1641059863782262   T   T   T
  0.5000000000000026  0.2889351235023705  0.4920057933091675   T   T   T
  0.5000000000000026  0.2778193386771395  0.8831130059206499   T   T   T
  0.5000000000000026  0.7817132870182149  0.1990221994071558   T   T   T
  0.5000000000000026  0.7396875940190900  0.5560959216817982   T   T   T
  0.5000000000000026  0.7364253857491023  0.7819765735422434   T   T   T
  0.5000000000000026  0.1744820812012354  0.0308062186344597   T   T   T
  0.0000000000000000  0.4130397532119470  0.1597975887056852   T   T   T
  0.5000000000000026  0.2384578178389438  0.3300198609861137   T   T   T
  0.0000000000000000  0.2479754504893303  0.5429209329258206   T   T   T
  0.5000000000000026 -0.0508488537754806  0.5146030793344597   T   T   T
  0.0000000000000000  0.2389083548666041  0.8234717218214812   T   T   T
  0.5000000000000026 -0.0580712606976367  0.8154022570321947   T   T   T
  0.5000000000000026  0.7649648168562655  0.0423629349401234   T   T   T
  0.0000000000000000  0.7845808525602229  0.2676560863933879   T   T   T
  0.5000000000000026  0.5305162918463064  0.5021081298485820   T   T   T
  0.0000000000000000  0.7325739533520209  0.6678442141862500   T   T   T
  0.5000000000000026  0.5236862248983050  0.8352741920564941   T   T   T
