Sr Co O 
 1.0000000000000000
    -4.1554280025311270    4.0926197329586396    0.1385193399755328
    -0.1839601597800687    4.1869596076233258    7.7256717826466259
     3.8310215865172115    7.8549627327678024    0.1644828873207538
 Sr  Co  O  
   6   6  12
Selective dynamics
Direct
 -0.0065433647836199 -0.0326173445886955  0.0141802506167265   T   T   T
  0.8638148136250222  0.4999709529191758  0.8472696735232927   T   T   T
  0.6388321957275102 -0.0046229089752608  0.6920206721026608   T   T   T
  0.5361791113123083  0.5069387067449589  0.4732149088620676   T   T   T
  0.2956519882085755 -0.0010597033090215  0.3190850735157184   T   T   T
  0.2244367351554199  0.5058882156134699  0.1510300212143439   T   T   T
  0.7400737450142987  0.2019890433019118  0.2873513832411738   T   T   T
  0.5738106225058579  0.7680029481348399  0.0780250128133007   T   T   T
  0.4490810740916138  0.2748723896508382  0.9173271459257151   T   T   T
  0.2291098395074337  0.7553862733490101  0.7715954782658365   T   T   T
  0.0901624041368767  0.2568232113662302  0.5350344737866886   T   T   T
  0.9260696384648953  0.7238840663250459  0.4078614811999979   T   T   T
  0.8720372505750262 -0.0518873898006046  0.4200433664926657   T   T   T
  0.6690596549583246  0.2570178694716332  0.0571723516568197   T   T   T
  0.9194877684710511  0.7235522070009273  0.9473089077393243   T   T   T
  0.4777474660530799  0.7289138278571899  0.8936235075237778   T   T   T
  0.3808347716103387  0.0666877801683582 -0.0242104770897398   T   T   T
  0.3232208958648893  0.5068370728345974  0.7746223080574384   T   T   T
  0.0948751269237220  0.0129183580406434  0.6803946938948506   T   T   T
  0.4401135214173610  0.2683433265038908  0.4506560814180300   T   T   T
  0.9771778891144353  0.2982076010098172  0.3130266677256924   T   T   T
 -0.0806666868998984  0.4841917130387445  0.5677571735921654   T   T   T
  0.2609915106299459  0.7193891421115093  0.2462882887153746   T   T   T
  0.6877753752732269  0.7803727083697354  0.2626548400679435   T   T   T
