Sr Co O 
 1.0000000000000000
     3.7520024221379895    0.0000000000000000    0.0000000000000000
     0.0000000000000000    3.8698753107574340    8.0122500119762812
     0.0000000000000000  -11.6397280853477412    4.0219096376090047
 Sr  Co  O  
   7   7  18
Selective dynamics
Direct
  0.0000000000000000 -0.0166250672625667  0.0046626318493454   T   T   T
  0.0000000000000000  0.4098262359444623  0.1466271501924860   T   T   T
  0.0000000000000000  0.8667667877133459  0.2926707124016524   T   T   T
  0.0000000000000000  0.2705297550629700  0.4222190407097448   T   T   T
  0.0000000000000000  0.7378700893604985  0.5788159456632526   T   T   T
  0.0000000000000000  0.1424019267702602  0.7097454593025565   T   T   T
  0.0000000000000000  0.5828596580299733  0.8550636383256477   T   T   T
  0.5000000000000002  0.2858272496893262  0.9320873093225516   T   T   T
  0.5000000000000002  0.7067261312201043  0.0680504126482796   T   T   T
  0.5000000000000002  0.1320043936771295  0.2130673571763242   T   T   T
  0.5000000000000002  0.5738155946140668  0.3529794213963998   T   T   T
  0.5000000000000002  0.0044418146229233  0.5019370149068830   T   T   T
  0.5000000000000002  0.4352329395013036  0.6416788942144477   T   T   T
  0.5000000000000002  0.8643232254304672  0.7870976952878956   T   T   T
  0.5000000000000002  0.0938002080938548  0.8635334251752974   T   T   T
  0.5000000000000002  0.2085002323652321  0.0642515470321974   T   T   T
  0.5000000000000002  0.4794556226231709  0.0074971115184055   T   T   T
  0.0000000000000000  0.6851266301972253  0.0931073006625740   T   T   T
  0.5000000000000002  0.9018226266379920  0.1503403794522422   T   T   T
  0.0000000000000000  0.1384680870088613  0.2107129349435554   T   T   T
  0.5000000000000002  0.0686997827046193  0.3593877364312195   T   T   T
  0.5000000000000002  0.3743815852445588  0.2965587537656315   T   T   T
  0.0000000000000000  0.5825531037243177  0.3320737163580042   T   T   T
  0.5000000000000002  0.7602862119263207  0.4308436744277830   T   T   T
  0.0000000000000000  0.0054512198300801  0.5019451303571377   T   T   T
  0.5000000000000002  0.9417366061984142  0.6452202835525468   T   T   T
  0.5000000000000002  0.2421413074798858  0.5739536972351977   T   T   T
  0.0000000000000000  0.4548035245357245  0.6008178150348057   T   T   T
  0.5000000000000002  0.3644811719764900  0.8012744973889301   T   T   T
  0.5000000000000002  0.6328437164584647  0.7026927244341526   T   T   T
  0.0000000000000000  0.8627723779955968  0.7888879588130203   T   T   T
  0.5000000000000002  0.7781038844513104  0.9273414914914182   T   T   T
