Sr Co O 
 1.0000000000000000
     3.6882928826772612    0.0000000000000000    0.0000000000000000
     0.0000000000000000    8.4609734258772331    0.0410465729310535
     0.0000000000000000    0.0393614479010998   11.6506003275616390
 Sr  Co  O  
   6   6  13
Selective dynamics
Direct
  0.0000000000000000 -0.0302024954018274  0.0007655846833630   T   T   T
  0.0000000000000000  0.0137231633483946  0.3251271615990446   T   T   T
  0.0000000000000000 -0.0187021779620680  0.6462327474063000   T   T   T
  0.0000000000000000  0.5378210812867019 -0.0250197758111695   T   T   T
  0.0000000000000000  0.5020900757143968  0.3447113139033973   T   T   T
  0.0000000000000000  0.5412915202000498  0.6533134903815241   T   T   T
  0.5000000000000000  0.2702180422766634  0.1705257773341254   T   T   T
  0.5000000000000000  0.2513041030144507  0.5036536782634364   T   T   T
  0.5000000000000000  0.2480887090359720  0.8204877221760429   T   T   T
  0.5000000000000000  0.7189059381878526  0.1583908260837154   T   T   T
  0.5000000000000000  0.7652491493161783  0.4895035923614021   T   T   T
  0.5000000000000000  0.7809397865885904  0.8233539964595293   T   T   T
  0.5000000000000000  0.0620418372933580  0.1392731060211300   T   T   T
  0.5000000000000000  0.2750536409749438  0.3326342238462362   T   T   T
  0.0000000000000000  0.2631072578434173  0.5665241940301391   T   T   T
  0.5000000000000000 -0.0014351550210829  0.4795195494951706   T   T   T
  0.5000000000000000  0.0404336645109745  0.8256540399796665   T   T   T
  0.5000000000000000  0.7610657385003751 -0.0100900138692560   T   T   T
  0.0000000000000000  0.7561310749572147  0.2031993813954011   T   T   T
  0.5000000000000000  0.4772762431516783  0.1267992142052766   T   T   T
  0.0000000000000000  0.7668975560333825  0.4613379496968348   T   T   T
  0.5000000000000000  0.5371863507812821  0.4903382450956147   T   T   T
  0.5000000000000000  0.7682458895667501  0.6617450991521479   T   T   T
  0.0000000000000000  0.7578960103488940  0.8255330922866565   T   T   T
  0.5000000000000000  0.4553728043661666  0.8198191134887975   T   T   T
