Sr Co O 
 1.0000000000000000
    -3.9275974002859595    3.9254857436972017    3.7942354855284726
    -3.9552936070315861    0.0120703117748072   -7.6276458499335389
     0.0192834280704490   -7.8539463103260490    3.8162345103720408
 Sr  Co  O  
   7   7  18
Selective dynamics
Direct
  0.0220171140722946  0.0114466826777546  0.0071269494997432   T   T   T
  0.2814068665275004  0.7200769281697065  0.1576490064433367   T   T   T
  0.5797460902946762  0.4229061947158188  0.2733342913256813   T   T   T
  0.8482895755140483  0.1416146495513373  0.4230724006153772   T   T   T
  0.1368166730461000  0.8552381650308507  0.5688344411859251   T   T   T
  0.4261430537492418  0.5645259428275465  0.7031697012218192   T   T   T
  0.7022959582542575  0.2792399085606942  0.8611503341595241   T   T   T
  0.9320879116376835  0.5707551789764116  0.7192796531827743   T   T   T
  0.2154768357673923  0.2831224667336504  0.8556803808446118   T   T   T
  0.5042220212032246  0.0002011183938054 -0.0019338330170054   T   T   T
  0.7904067156554918  0.7094194086753548  0.1453428156402647   T   T   T
  0.0787826042248601  0.4257780995597255  0.2839382911566590   T   T   T
  0.3512005953122692  0.1462001825822936  0.4271901463563154   T   T   T
  0.6307981635060068  0.8649850791558170  0.5660307149882696   T   T   T
  0.2090492001878122  0.7587429516179617  0.8547397866157823   T   T   T
  0.8532048732637260  0.6550599184348749  0.9114616008655121   T   T   T
  0.5040766153283757  0.5363861320217918 -0.0016579130023054   T   T   T
  0.1323672768135516  0.3696908385421446  0.0402855151664931   T   T   T
  0.3699980451226658  0.1480645533940612  0.9269638342602122   T   T   T
  0.7992738869575893  0.2008265086850154  0.1468073831021401   T   T   T
  0.4474629391736631  0.0435497276373825  0.2029897388104662   T   T   T
  0.0312896505512621  0.9283633621964031  0.2632916823234887   T   T   T
  0.7120428793008668  0.7900665857377521  0.3582750803575721   T   T   T
  0.9388748086871114  0.5684104371742198  0.2211213199734627   T   T   T
  0.3922934163139314  0.6462252995746656  0.4449314763837719   T   T   T
 -0.0095555028415616  0.5076743330620582  0.5153353045113812   T   T   T
  0.2405086324021642  0.2914147667311123  0.3452290989077000   T   T   T
  0.6745541171212417  0.3620738731339970  0.5935363563388211   T   T   T
  0.2451573723278611  0.2414870183999573  0.6459040787447838   T   T   T
  0.4607262870549896  0.0058485502620059  0.5167094059691482   T   T   T
  0.9098361033105755  0.0452388899904557  0.7121544885556015   T   T   T
  0.5891492934956875  0.9053661941557309  0.8120562664262262   T   T   T
