Sr Co O 
 1.0000000000000000
     3.9983268117876318    0.0000000000000000    4.0647539952372957
    -0.0000000000000000   -7.6091758567713441   -0.0000000000000000
     3.9690300259273488   -0.0000000000000000   -8.1146535758032741
 Sr  Co  O  
   6   6  13
Selective dynamics
Direct
  0.0181732294440161  0.0073433654495932 -0.0134875367936036   T   T   T
  0.2996636073006173  0.0145292464944540  0.6636920766622243   T   T   T
  0.7353332307165090  0.0171852352436483  0.3340220457528476   T   T   T
  0.0181732294440161  0.4926566345504058 -0.0134875367936036   T   T   T
  0.2996636073006173  0.4854707535055450  0.6636920766622243   T   T   T
  0.7353332307165090  0.4828147647563506  0.3340220457528476   T   T   T
  0.5606564065894356  0.7499999999999982  0.0196300393121047   T   T   T
  0.7991054970264944  0.7499999999999982  0.6142337346103384   T   T   T
  0.2075885014885379  0.7499999999999982  0.3496136711625649   T   T   T
  0.5196833074365443  0.2499999999999991 -0.0043757345082172   T   T   T
  0.8240774398976278  0.2499999999999991  0.6877864176832794   T   T   T
  0.1923350540697730  0.2499999999999991  0.2940903501783899   T   T   T
  0.2516415583749150  0.7499999999999982  0.9002569849046875   T   T   T
  0.5599353252249336  0.7499999999999982  0.4024757912499085   T   T   T
  0.7815574282731522 -0.0283958688516070  0.6898477704737886   T   T   T
  0.0718944571951989  0.7499999999999982  0.5285794454044244   T   T   T
  0.8785465372062183  0.7499999999999982  0.1380343154663948   T   T   T
  0.2149215043077119  0.0220949758907188  0.3579252097627883   T   T   T
  0.4206757645631913  0.2499999999999991  0.1750302284193906   T   T   T
  0.1842356893375767  0.2499999999999991  0.8600045185512961   T   T   T
  0.6187029949941505  0.2499999999999991  0.8172004676336433   T   T   T
  0.7815574282731522  0.5283958688516064  0.6898477704737886   T   T   T
 -0.0445837640159653  0.2499999999999991  0.5227217572171236   T   T   T
  0.8562074491653768  0.2499999999999991  0.1307191492984120   T   T   T
  0.2149215043077119  0.4779050241092803  0.3579252097627883   T   T   T
