Sr Co O 
 1.0000000000000000
     3.8926699887720471    4.0062373033014085    0.0000000000000000
     3.8926699887720471   -4.0062373033014085    0.0000000000000000
     0.0000000000000000    0.0000000000000000  -11.3792660884059220
 Sr  Co  O  
   6   6  16
Selective dynamics
Direct
 -0.0036889452624739  0.0036889452624740  0.0047070011848258   T   T   T
  0.0000000000000000 -0.0000000000000000  0.6666666666666673   T   T   T
  0.0036889452624740 -0.0036889452624740  0.3286263321485077   T   T   T
  0.5036889452624741  0.4963110547375265  0.0047070011848258   T   T   T
  0.5000000000000002  0.5000000000000004  0.6666666666666673   T   T   T
  0.4963110547375263  0.5036889452624744  0.3286263321485077   T   T   T
  0.5115836815872348  0.0115836815872348  0.8322982286317304   T   T   T
  0.4884163184127657 -0.0115836815872344  0.5010351047016041   T   T   T
  0.5000000000000002  0.0000000000000001  0.1666666666666668   T   T   T
 -0.0115836815872345  0.4884163184127657  0.8322982286317304   T   T   T
  0.0115836815872347  0.5115836815872349  0.5010351047016041   T   T   T
  0.0000000000000000  0.5000000000000002  0.1666666666666668   T   T   T
  0.4528411445330833 -0.0471588554669168 -0.0162318782829672   T   T   T
  0.2500000000000002  0.2500000000000002  0.8261275596968795   T   T   T
  0.5000000000000002  0.0000000000000001  0.6666666666666673   T   T   T
  0.2500000000000002  0.7500000000000003  0.4894269419875838   T   T   T
  0.2500000000000002  0.2500000000000002  0.5072057736364555   T   T   T
  0.5471588554669173  0.0471588554669174  0.3495652116163007   T   T   T
  0.2500000000000002  0.7500000000000003  0.1884234034668430   T   T   T
  0.2500000000000002  0.2500000000000002  0.1666666666666668   T   T   T
  0.0471588554669173  0.5471588554669174 -0.0162318782829672   T   T   T
  0.7500000000000003  0.2500000000000003  0.8439063913457501   T   T   T
  0.7500000000000008  0.7500000000000011  0.8261275596968787   T   T   T
  0.0000000000000000  0.5000000000000002  0.6666666666666673   T   T   T
  0.7500000000000008  0.7500000000000011  0.5072057736364551   T   T   T
 -0.0471588554669168  0.4528411445330834  0.3495652116163007   T   T   T
  0.7500000000000003  0.2500000000000003  0.1449099298664905   T   T   T
  0.7500000000000008  0.7500000000000011  0.1666666666666668   T   T   T
