Sr Co O 
 1.0000000000000000
     4.0411515252924275    4.0411515252924310   -0.1388953869403313
     4.0365495600857084   -4.0365495600857058   -0.0000000000000000
     0.2080040683270936    0.2080040683270934  -11.3518090809897654
 Sr  Co  O  
   6   6  13
Selective dynamics
Direct
 -0.0116251418828204 -0.0000000000000000 -0.0026470106297564   T   T   T
 -0.0263388046483891  0.0000000000000000  0.6514524520818680   T   T   T
 -0.0078892636159982 -0.0000000000000000  0.3510673709181499   T   T   T
  0.5369359555536156  0.5000000000000011  0.0039556061054368   T   T   T
  0.5038938360659554  0.4999999999999999  0.6493510685568871   T   T   T
  0.5038718667497326  0.5000000000000000  0.3506810767886143   T   T   T
  0.5342817922284068  0.0000000000000002  0.8413109969298205   T   T   T
  0.4717127383994208  0.0000000000000003  0.5048593300504911   T   T   T
  0.5277081171676493 -0.0000000000000002  0.1653054515791404   T   T   T
 -0.0264688491036988  0.5000000000000011  0.8602461465340395   T   T   T
 -0.0023569449036728  0.5000000000000006  0.4885759795006757   T   T   T
 -0.0209286032427717  0.5000000000000008  0.1614937482498522   T   T   T
  0.4166153290497340  0.0000000000000002  0.0033652601667981   T   T   T
  0.4197302212336087  0.0000000000000005  0.6917021849217947   T   T   T
  0.2236600434583168  0.7298799190902353  0.5193709438566534   T   T   T
  0.2236600434583174  0.2701200809097663  0.5193709438566534   T   T   T
  0.4335025665988462  0.0000000000000003  0.3235136851637538   T   T   T
  0.1247360855776835  0.4999999999999997 -0.0005241652125939   T   T   T
  0.7914751365894500  0.2464012698633514  0.8250673850588985   T   T   T
  0.7914751365894489  0.7535987301366496  0.8250673850588985   T   T   T
  0.7514990236154205  0.2624415135974758  0.5001191527812664   T   T   T
  0.7514990236154201  0.7375584864025257  0.5001191527812664   T   T   T
  0.0813328993180531  0.5000000000000012  0.3108164564121798   T   T   T
  0.7540089199711802  0.2516842803758475  0.1448463759135844   T   T   T
  0.7540089199711786  0.7483157196241534  0.1448463759135844   T   T   T
