Sr Co O 
 1.0000000000000000
     4.0686364659494112    0.0573819580270602    3.9786504494141250
    -3.9257175786180469    3.7099810621414098    3.8942557362913313
    -4.3398450583215435   -7.9872993144184914    0.1513603617995734
 Sr  Co  O  
   5   5  10
Selective dynamics
Direct
  0.0243331605031733  0.0339807448573394  0.0290708106823692   T   T   T
  0.5946091871504465  0.3907814255739218  0.2082036841571592   T   T   T
  0.1923881377687354  0.7907598061975223  0.3482271568665638   T   T   T
  0.7981937615557652  0.1958978212187838  0.5687672935840852   T   T   T
  0.3604079963438208  0.5608594639749850  0.8370233986844836   T   T   T
  0.4295722568265901  0.1018007687494821  0.7702108572134932   T   T   T
 -0.0208698914537567  0.5365911701536920  0.0131622940653050   T   T   T
  0.5987347537983604  0.9018830162228594  0.1941708124329859   T   T   T
  0.2117364110944005  0.2919484683610970  0.3895630830303747   T   T   T
  0.7069877184464876  0.6888168846722169  0.6529881185973023   T   T   T
  0.3375718630514148  0.2237515162033104  0.9396694676349467   T   T   T
  0.7509675342580624  0.7351481501024004  0.0640799566131745   T   T   T
  0.0289936173735862  0.4000062322789182  0.1897123460258354   T   T   T
  0.3002356652966545  0.7191468359696374  0.0951446327027703   T   T   T
  0.4244149573556375  0.0814562677518881  0.3072864018393184   T   T   T
  0.8911206812402702  0.0784060617362984  0.3074868241615141   T   T   T
  0.2638378636610106  0.2486783006282687  0.6080490262920811   T   T   T
  0.5062787647135344  0.5346889219346060  0.4579291553806226   T   T   T
  0.7064589507227660  0.9698845798365079  0.7369486666071686   T   T   T
  0.8940267177116281  0.5155136021149848  0.7823060176987954   T   T   T
