Sr Co O 
 1.0000000000000000
    -4.1503171063966278    3.8706137814934047    4.1750544899932782
    -3.9903054994118587   -3.6159845959029258    4.0832244663281170
     3.9538293238320468    0.0216889369246009    8.1484807739495633
 Sr  Co  O  
   6   6  12
Selective dynamics
Direct
 -0.0220161183044236  0.0099053981643854  0.0137677948168729   T   T   T
  0.1836218112055961  0.1584306533313207  0.3282610884242587   T   T   T
  0.3250334410716569  0.3066949182783051  0.6651714708254108   T   T   T
  0.4646015944711395  0.4819096913734505  0.0242917490598632   T   T   T
  0.7006087503390637  0.6940403410162713  0.2978952121747754   T   T   T
  0.8426582580516501  0.8146138207505413  0.6665068322604223   T   T   T
  0.1791094457389536  0.6619678137221648  0.3470907913512968   T   T   T
  0.3346603983016717  0.7671537069790694  0.6822393541206642   T   T   T
  0.4827450759403000 -0.0775918815962565 -0.0135388653717733   T   T   T
  0.6938048009164782  0.2033552512239562  0.3394224259220009   T   T   T
  0.8119133354494767  0.3940931640842932  0.6351131597123152   T   T   T
 -0.0311244718609875  0.5114666672329453 -0.0211188486632437   T   T   T
  0.0894028037682526  0.6227321105005621  0.1839131276781356   T   T   T
  0.3640266957720926  0.8102401863031099  0.1900540975159038   T   T   T
  0.1924361042187913  0.7931684785166834  0.5117396702890575   T   T   T
  0.3325728830578404  0.9476916167478491  0.8334472732099559   T   T   T
  0.5655760364999726  0.1245260387751650  0.2263391949445325   T   T   T
  0.8924162336027538  0.3132583634254361  0.1764175798718067   T   T   T
  0.7101564831445845  0.2220101152486629  0.5385566307176723   T   T   T
  0.0760133955773937  0.4333732939675875  0.4963636142518740   T   T   T
  0.6203394501446470  0.7043700203109704  0.5724080073398073   T   T   T
  0.8462505396110853  0.3950748454123545  0.8446918084893873   T   T   T
  0.2365377959598816  0.5371707512506199  0.8464279711310162   T   T   T
  0.7753218845252244  0.8370113000043987 -0.0521278054926938   T   T   T
