Sr Co O 
 1.0000000000000000
     3.9464350510713935    0.0057493367079065    3.8972771544566416
     0.0033289645838488   -7.7500790929164589    3.8824814655720363
     7.9254275201068998   -3.9046472504120104   -3.9356117015051462
 Sr  Co  O  
   7   7  19
Selective dynamics
Direct
 -0.0258637728987354  0.0090881897749153 -0.0010715461479870   T   T   T
  0.5766786720131576  0.1460495207329835  0.6948334168614063   T   T   T
  0.1543400013203906  0.2807546364541078  0.4356137594039335   T   T   T
  0.7219091736453966  0.4261053928230241  0.1526918954853352   T   T   T
  0.2994755792262767  0.5538562501867250  0.8440967757428294   T   T   T
  0.8686523329815949  0.7113322385268052  0.5698099172891432   T   T   T
  0.4317636193399449  0.8599435400313924  0.3079672976551946   T   T   T
  0.6647731324106222  0.7708504309579965  0.9076002823679307   T   T   T
  0.2136338353000666  0.9277773263499990  0.6433117213312743   T   T   T
  0.7967480321563726  0.0721685768704665  0.3536752500078327   T   T   T
  0.3460472130879516  0.2348982446731251  0.0762459970162140   T   T   T
  0.9330057140819744  0.3473800741303592  0.7848221602244476   T   T   T
  0.5060644427528528  0.4977548221293851  0.5033805469571144   T   T   T
  0.0639342750614840  0.6388239139418331  0.2379178861185553   T   T   T
  0.3891674107877770  0.8470145489481019  0.8316558260137022   T   T   T
  0.8881681665266670  0.8799068728520421  0.7849378305250596   T   T   T
  0.0101899435445168  0.0000759724412624  0.4814967722983393   T   T   T
  0.0913373936090975  0.1334594481172338  0.7003522903754991   T   T   T
  0.5270193079333465 -0.0194452559693417  0.5049259839503648   T   T   T
  0.5834709112808548  0.1430925892831380  0.2191282098527063   T   T   T
  0.6645345472188460  0.2863089805909583  0.4257753683307287   T   T   T
  0.1051929485274046  0.1440980864466479  0.1958565530274302   T   T   T
  0.1345059705046617  0.2748549512713496  0.9183036164749400   T   T   T
  0.2073746767387282  0.4723400129256647  0.1197981912098549   T   T   T
  0.6258918051041726  0.2510722456358733  0.9285939532732773   T   T   T
  0.7262714537136657  0.4230679901088203  0.6548758513546430   T   T   T
  0.7600053308909037  0.5550594043976538  0.8810616729787346   T   T   T
  0.2271191215362365  0.4321323629567759  0.6343743320577441   T   T   T
  0.3149579013528037  0.5766359722732034  0.3450304884912749   T   T   T
  0.3412827173036571  0.7192772477377913  0.5904100116374573   T   T   T
  0.7801273186391999  0.5769720960471126  0.3734172258760419   T   T   T
  0.7384638592255806  0.7604036363322075  0.0730719946554612   T   T   T
  0.9766139932393768  0.8526040146896940  0.2546099452111995   T   T   T
