Sr Co O 
 1.0000000000000000
     3.6873947638164046    0.0000000000000000    0.0000000000000000
     0.0000000000000000    8.1321922253250172   -0.0271942454386998
     0.0000000000000000   -0.0432386980888489   12.4120334365501535
 Sr  Co  O  
   6   6  12
Selective dynamics
Direct
  0.0000000000000000 -0.0313712091661255  0.0162977267549013   T   T   T
  0.0000000000000000 -0.0103322630496161  0.3216641124457746   T   T   T
  0.0000000000000000 -0.0185989005401636  0.6393262851131415   T   T   T
  0.0000000000000000  0.5360861790820108  0.0187010616407204   T   T   T
  0.0000000000000000  0.4908855681624520  0.3060694844669687   T   T   T
  0.0000000000000000  0.5231489901146230  0.6768454115203716   T   T   T
  0.5000000000000003  0.2343393838252824  0.1658992078707033   T   T   T
  0.5000000000000003  0.2443576737187498  0.4837222241634008   T   T   T
  0.5000000000000003  0.3060403345815604  0.8873133960390360   T   T   T
  0.5000000000000003  0.7476618088054908  0.1714198710378047   T   T   T
  0.5000000000000003  0.7590331363241596  0.4867305105000190   T   T   T
  0.5000000000000003  0.7568305530759135  0.8375857418549186   T   T   T
  0.5000000000000003  0.1886555912050004  0.0055469520837756   T   T   T
  0.5000000000000003  0.0071681979090943  0.1839249450612058   T   T   T
  0.5000000000000003  0.2635490023186591  0.3244961242359473   T   T   T
  0.0000000000000000  0.2944806002463732  0.5468242815139448   T   T   T
  0.5000000000000003 -0.0020229557034192  0.5001725579672208   T   T   T
  0.5000000000000003  0.7492833215205567 -0.0025996817578827   T   T   T
  0.0000000000000000  0.7409113708415150  0.1748887800832659   T   T   T
  0.5000000000000003  0.4620138375381245  0.1501487224314031   T   T   T
  0.5000000000000003  0.7037002441440894  0.3481674906392155   T   T   T
  0.5000000000000003  0.7223766885303126  0.6306702144604406   T   T   T
  0.0000000000000000  0.8428371324563768  0.8155191959159711   T   T   T
  0.5000000000000003  0.4889658130705602  0.8106653718924381   T   T   T
