Sr Co O 
 1.0000000000000000
    -3.9053008404131524    4.2841773143368052    3.8739497874230837
    -3.9935186524582904   -4.3369735305123740    3.8267434478446782
     3.7385512027674110    0.0511091368738892    7.4772496166999520
 Sr  Co  O  
   6   6  12
Selective dynamics
Direct
  0.0082792875498859 -0.0150880770720505 -0.0188361061086457   T   T   T
  0.1651020932911157  0.1425222427055978  0.3202151564624671   T   T   T
  0.2879740256805722  0.2972593405117671  0.6810418887678809   T   T   T
  0.4868728055385321  0.4686083912795638 -0.0291237574619631   T   T   T
  0.7194145452109589  0.6836935885090548  0.3322069900450316   T   T   T
  0.8551099576536090  0.8460827574067930  0.6377821911541237   T   T   T
  0.2459761546452550  0.5888009181587300  0.3600799064735748   T   T   T
  0.3260626783610072  0.7791324524134855  0.6421544453795620   T   T   T
  0.5182351835384958 -0.0420524401807439 -0.0115532666307752   T   T   T
  0.6924029394528539  0.2169946066696962  0.3354947851368160   T   T   T
  0.8004604202858177  0.3692816477779193  0.6509323394864361   T   T   T
 -0.0532470628636289  0.5008721256471995 -0.0206065580770209   T   T   T
  0.8784267610312497  0.9639523854960975  0.3021640776457348   T   T   T
  0.3496321070891335  0.7934114028301413  0.3898171662885892   T   T   T
  0.1374970261908599  0.0263039171345371  0.6534472837074652   T   T   T
  0.3026719069269160  1.1484161555576398  0.9906129212824731   T   T   T
  0.8877311957723609  0.3918447160655994  0.2132243414730296   T   T   T
  0.4215234795127090  0.3588896584642187  0.2829509348449723   T   T   T
  0.6615149910864315  0.2013188029414496  0.5848509823674100   T   T   T
  0.0170932753838607  0.5143642451782550  0.5092363053480916   T   T   T
  0.5969148959879245  0.6399678775251720  0.6588665589590396   T   T   T
  0.8487898631652432  0.3216912601403468  0.8808560518306947   T   T   T
  0.1820570165636782  0.6071143743156945  0.8417676238214138   T   T   T
  0.7468376918509055  0.7799511521069565 -0.0209155952954415   T   T   T
