Sr Co O 
 1.0000000000000000
    -3.9378578476989139    3.8136879608786050    3.9989556812633062
    -3.9378578476989139   -3.8136879608786050    3.9989556812633062
     3.9199325975171795   -0.0000000000000000    7.9800540566553515
 Sr  Co  O  
   6   6  12
Selective dynamics
Direct
 -0.0251954272554660  0.0081774608225799  0.0057790193494210   T   T   T
  0.1792250408905125  0.1787440799504383  0.3325370383278715   T   T   T
  0.3363794865875954  0.3135084218970225  0.6678932062260399   T   T   T
  0.5081774608225792  0.4748045727445345  0.0057790193494213   T   T   T
  0.6787440799504381  0.6792250408905134  0.3325370383278713   T   T   T
  0.8135084218970211  0.8363794865875960  0.6678932062260409   T   T   T
  0.1621623328465708  0.6621623328465727  0.3510326989979251   T   T   T
  0.3344232833841992  0.8344232833842010  0.6935238529084141   T   T   T
  0.5073175586239257  0.0073175586239258  0.0006723339697283   T   T   T
  0.6677977883992863  0.1677977883992867  0.3435960872424740   T   T   T
  0.8280939608582057  0.3280939608582058  0.6599916110788132   T   T   T
  0.0078551023975876  0.5078551023975894 -0.0426075857164820   T   T   T
  0.9818270535085758  0.9350161140046812  0.3046766668018731   T   T   T
  0.4744813480149938 -0.0255186519850061  0.5141053528685727   T   T   T
  0.3784113579077155  0.8784113579077172  0.8825968272920984   T   T   T
  0.6607556561381682  0.1607556561381684  0.8006099346508340   T   T   T
  0.2277137167866936  0.2690592824941194  0.0414937678878755   T   T   T
  0.5914190228424065  0.0914190228424066  0.1756518720644165   T   T   T
  0.4350161140046795  0.4818270535085775  0.3046766668018726   T   T   T
  0.7690017872135476  0.2690017872135481  0.4834698991188124   T   T   T
 -0.0026595985364049  0.4973404014635960  0.5082811120892412   T   T   T
  0.8853056009299778  0.3853056009299784  0.8381692902798541   T   T   T
  0.1645128872824650  0.6645128872824662  0.7528140590939887   T   T   T
  0.7690592824941179  0.7277137167866946  0.0414937678878760   T   T   T
