Sr Co O 
 1.0000000000000000
    -3.6673909088879166    0.0000000000000000    0.0000000000000000
     0.0000000000000000    4.1369327527866950    3.9113520852946122
     0.0000000000000000   16.6332207312497538  -15.7379828820241769
 Sr  Co  O  
   8   8  21
Selective dynamics
Direct
 -0.0000000000000000 -0.0473680528879256 -0.0039091109825429   T   T   T
 -0.0000000000000000  0.4832505319701024  0.8716088671030970   T   T   T
 -0.0000000000000000 -0.0373021285321415  0.7425799578093014   T   T   T
 -0.0000000000000000  0.4633439896608468  0.6203625848194497   T   T   T
 -0.0000000000000000 -0.0063955874043456  0.4986257772179427   T   T   T
 -0.0000000000000000  0.5211287078753583  0.3769226697120646   T   T   T
 -0.0000000000000000  0.0485385886605314  0.2595722710649629   T   T   T
 -0.0000000000000000  0.5617170627099918  0.1349029124720525   T   T   T
  0.4999999999999997  0.4846585514176898 -0.0035458458091085   T   T   T
  0.4999999999999997 -0.0535104846750325  0.8696083151443271   T   T   T
  0.4999999999999997  0.4816599436550666  0.7447312503869283   T   T   T
  0.4999999999999997 -0.0357765424085527  0.6191293209290512   T   T   T
  0.4999999999999997  0.4937834059106690  0.4984546488649069   T   T   T
  0.4999999999999997  0.0205922964346944  0.3778498757648419   T   T   T
  0.4999999999999997  0.5475259313391386  0.2546406123088933   T   T   T
  0.4999999999999997  0.0660276343993028  0.1336170703215768   T   T   T
  0.4999999999999997  0.2206173497013204  0.9594065153316961   T   T   T
  0.4999999999999997  0.7054647954326947  0.9347258842481025   T   T   T
 -0.0000000000000000  0.0401576402397254  0.8645842676597870   T   T   T
  0.4999999999999997  0.7043191421990842  0.8103310860797367   T   T   T
 -0.0000000000000000  0.4177490388233989  0.7651879320654364   T   T   T
  0.4999999999999997  0.2307730516718995  0.6979006344154768   T   T   T
  0.4999999999999997  0.7200176670250151  0.6878046945546824   T   T   T
 -0.0000000000000000 -0.0233226834457743  0.6281565934902897   T   T   T
  0.4999999999999997  0.7257722035224735  0.5636773335634789   T   T   T
  0.4999999999999997  0.2278529779227423  0.5652762865301403   T   T   T
 -0.0000000000000000  0.4923301654322479  0.5014885264007436   T   T   T
  0.4999999999999997  0.2573118795526836  0.4390044261071578   T   T   T
  0.4999999999999997  0.7578904369519853  0.4380616698530764   T   T   T
 -0.0000000000000000  0.0225202086162772  0.3759349700399895   T   T   T
  0.4999999999999997  0.7875353561039595  0.3123366019224855   T   T   T
  0.4999999999999997  0.2856042254124049  0.3130184351126059   T   T   T
 -0.0000000000000000  0.5488286365483064  0.2491261630523261   T   T   T
  0.4999999999999997  0.3093517930138732  0.1840984455515825   T   T   T
  0.4999999999999997  0.8108784769559438  0.1843369403456670   T   T   T
 -0.0000000000000000  0.0984323388776052  0.0994480344027398   T   T   T
  0.4999999999999997  0.6680408868684209  0.0559433163827271   T   T   T
