Sr Co O 
 1.0000000000000000
    -3.8552907329147503    3.8788617496570645    3.8386486992305211
    -3.8552907329147503   -3.8788617496570645    3.8386486992305211
     4.1002417627054113   -0.0000000000000002    7.9230817889182834
 Sr  Co  O  
   6   6  12
Selective dynamics
Direct
 -0.0121928762550997 -0.0263131777880629  0.0035713556952636   T   T   T
  0.1815695561165007  0.1912163157338404  0.3461075798120227   T   T   T
  0.3259837738042655  0.3438833314068157  0.6701273831152842   T   T   T
  0.4736868222119381  0.4878071237449002  0.0035713556952640   T   T   T
  0.6912163157338423  0.6815695561165004  0.3461075798120232   T   T   T
  0.8438833314068171  0.8259837738042640  0.6701273831152842   T   T   T
  0.1689204606789556  0.6689204606789543  0.3220050301740376   T   T   T
  0.3369818932905264  0.8369818932905249  0.6641286777842423   T   T   T
  0.4921969338112403 -0.0078030661887601  0.0164760362450254   T   T   T
  0.6639433253312393  0.1639433253312379  0.3374395220630083   T   T   T
  0.8509587449590297  0.3509587449590281  0.6757911053638497   T   T   T
 -0.0070098701591814  0.4929901298408182 -0.0160020931375083   T   T   T
  0.0541281256497542  0.5541281256497539  0.1767948572105475   T   T   T
  0.9716250288217302  0.9731052752709776  0.3031917337932183   T   T   T
  0.5211105704674389  0.0211105704674376  0.5426356883123046   T   T   T
  0.0635439409873133  0.0742207284759257  0.6374890377222679   T   T   T
  0.2635480607819247  0.2074246840280561 -0.0406479668179630   T   T   T
  0.5551581775878448  0.0551581775878445  0.1944890438043320   T   T   T
  0.4731052752709797  0.4716250288217287  0.3031917337932184   T   T   T
  0.0299756058630127  0.5299756058630116  0.5210844995804523   T   T   T
  0.5742207284759278  0.5635439409873139  0.6374890377222692   T   T   T
  0.8468159257735050  0.3468159257735037  0.8943680336229491   T   T   T
  0.1792054383887127  0.6792054383887116  0.8311113338024352   T   T   T
  0.7074246840280577  0.7635480607819238 -0.0406479668179626   T   T   T
