Sr Co O 
 1.0000000000000000
     3.8969641402345956    0.0065715862438467    3.9765152978768059
    -0.0301564237190188   -7.8690391403606101    3.9936882097159350
     7.7156298982349893   -3.8599246747365221   -3.9044909895419848
 Sr  Co  O  
   7   7  18
Selective dynamics
Direct
 -0.0032887727472498  0.0130193922870626  0.0065146620295436   T   T   T
  0.5639908044320229  0.1652746035852250  0.6990150840195130   T   T   T
  0.1448012129442139  0.2967238886433185  0.4136605295034890   T   T   T
  0.7115045511210207  0.4225659976686680  0.1482055583019011   T   T   T
  0.2897946313059813  0.5454830511792000  0.8604884399535462   T   T   T
  0.8713626104489550  0.6837515636149433  0.5753517595667239   T   T   T
  0.4263221451201539  0.8523224251904443  0.2956738299250248   T   T   T
  0.6261743506980523  0.7555080547340897  0.9419804484558965   T   T   T
  0.2787553508169717  0.9277593662560057  0.6500311670346686   T   T   T
  0.7768230285271993  0.0734896219662066  0.3444158921372258   T   T   T
  0.3431255445725521  0.2290117640108293  0.0741178195675832   T   T   T
  0.9271088138725806  0.3453902522089298  0.7844627245471371   T   T   T
  0.4998838383730932  0.4972344940726142  0.4972591114875237   T   T   T
  0.0558289204186170  0.6545595499441190  0.2180819522527489   T   T   T
  0.3188384707905348  0.7314910876409838  0.0715130426277801   T   T   T
  0.5293592004603358  0.8827885833919630  0.7776622726086815   T   T   T
  0.0292298066651507  0.1034149098019305  0.7200481711761707   T   T   T
  0.4666577496678475  0.0259560916534967  0.4813930365910909   T   T   T
  0.5750255973835898  0.1418945844495262  0.1899918145547975   T   T   T
  0.6971227796348464  0.2649415291811676  0.4212286771132848   T   T   T
  0.1006320298406384  0.1172849542459774  0.2108807112961306   T   T   T
  0.1882727431834162  0.2488783413855736  0.9232005388081577   T   T   T
  0.1759085915666282  0.4427378284742882  0.1341924935192136   T   T   T
  0.6530578677713087  0.2879983886225165  0.9242421367367327   T   T   T
  0.6867008031113966  0.4391934334400105  0.6418944297176989   T   T   T
  0.8208838294751447  0.5634577147016968  0.8640842158700502   T   T   T
  0.2007020962734733  0.4053291044002099  0.6394208242935601   T   T   T
  0.3050517668402424  0.5582625068714064  0.3582087691941453   T   T   T
  0.2878246584492304  0.7368331091890251  0.6026244605233508   T   T   T
  0.7802708745392287  0.5882278672683369  0.3551826319651175   T   T   T
  0.8063593911153079  0.7798991067523241  0.0640066170527704   T   T   T
  0.9373433120370640  0.8621740908430474  0.3252519455977548   T   T   T
