Sr Co O 
 1.0000000000000000
    -4.1656662964211177   -0.0000000000000002   -3.9772592108678735
    -0.0000000000000003   -7.5853967591079936   -0.0000000000000001
    -3.9675137308480664    3.7926983795539968    7.7564708698493350
 Sr  Co  O  
   6   6  12
Selective dynamics
Direct
  0.0377540311938479  0.0079286644519036  0.0017924335849848   T   T   T
  0.6545687360085526  0.1961856189643348  0.3343632461089823   T   T   T
  0.2993801745450183  0.3296251508024705  0.6266060398783320   T   T   T
  0.0377540311938479  0.4938637691330804  0.0017924335849848   T   T   T
  0.6545687360085527  0.6381776271446461  0.3343632461089822   T   T   T
  0.2993801745450183  0.7969808890758594  0.6266060398783320   T   T   T
  0.5176335799445568  0.7366640655033952 -0.0266718689932097   T   T   T
  0.0728704151232408  0.9060612378188873  0.3121224756377741   T   T   T
  0.8617780058499395  0.0870762916697449  0.6741525833394935   T   T   T
  0.5043454811900866  0.2385032252202509 -0.0229935495594975   T   T   T
  0.1674669216080583  0.4080056434891755  0.3160112869783515   T   T   T
  0.8159630877607539  0.5821387586584051  0.6642775173168124   T   T   T
  0.8207896936774298  0.7950484549339450  0.0900969098678918   T   T   T
  0.2159182405376466  0.1345266589628531  0.3199557765784169   T   T   T
 -0.1430216097770269 -0.0248300377224076  0.4503399245551891   T   T   T
  0.2403993605504932  0.1476051557896959  0.7952103115793971   T   T   T
  0.7670588152318195  0.3498221326856559  0.7204884568918017   T   T   T
  0.8205978079138838  0.2995967322037351  1.0991934644074772   T   T   T
  0.3489814342075855  0.3207254326969960  0.1414508653939927   T   T   T
  0.4936166615481226  0.5009839077535038  0.5019678155070086   T   T   T
  0.2159182405376466  0.6854291176155621  0.3199557765784169   T   T   T
 -0.0217223238013354  0.4916175866826315  0.4832351733652662   T   T   T
  0.2176080303614395  0.6742642065342481  0.8485284130684999   T   T   T
  0.7670588152318194  0.8706663242061433  0.7204884568918017   T   T   T
