Sr Co O 
 1.0000000000000000
     4.0196834157067265    3.9999259686071249   -0.0536590280012519
     3.9402003321916350   -3.9167379982223141    0.0492453285745044
     0.0028704602990445    0.1534003956659077  -11.7680470182248698
 Sr  Co  O  
   6   6  14
Selective dynamics
Direct
 -0.0157909977708189  0.0108314505886583 -0.0000791985920481   T   T   T
 -0.0408123115144529  0.0211382064789812  0.6756462681352599   T   T   T
 -0.0198602356840492  0.0129720657073721  0.3015221689969147   T   T   T
  0.5022831393350295  0.5171125493941605  0.0060929968044892   T   T   T
  0.5047470486273389  0.5238796150570472  0.6809075834058200   T   T   T
  0.5124458589899512  0.5191792614077532  0.3040390783402045   T   T   T
  0.4956036783896845  0.0103397192517602  0.8094552260624754   T   T   T
  0.4149169534190562 -0.0152818049278083  0.4917525456658987   T   T   T
  0.4958975584552651  0.0166019111594880  0.1683084394723805   T   T   T
 -0.0290891504719408  0.5419675205036758  0.8273799493415187   T   T   T
  0.0602134973696605  0.4848376715876721  0.4966366257547828   T   T   T
  0.0053749482359976  0.5106111309085182  0.1473176267326770   T   T   T
  0.2197045844609566  0.8451630176621401  0.8219229401494252   T   T   T
  0.5197998101235013  0.0556259643255429  0.6393831253616110   T   T   T
  0.3645335377291515  0.6412301064477682  0.4979798585951423   T   T   T
  0.1115960094436688  0.1388148300931859  0.4934048253827498   T   T   T
  0.5364362151474589  0.0312071590720640  0.3509815560272074   T   T   T
  0.2584529537368795  0.7794428812635207  0.1538043357013564   T   T   T
  0.2573731568555486  0.2583807820109910  0.1682262878240758   T   T   T
  0.0676845213580110  0.4596311611892740 -0.0287167360530624   T   T   T
  0.6849432735398899  0.2681856811084807  0.8396772919180350   T   T   T
  0.7104345488547965  0.7736005393757858  0.8526094059027260   T   T   T
  0.9585903550333236  0.5245193636660992  0.6539671177029732   T   T   T
 -0.0509525610420243  0.5450062949594381  0.3576113639632466   T   T   T
  0.7355807424232882  0.2545475004843508  0.1458472574494284   T   T   T
  0.7398928871661203  0.7704555021918928  0.1443220725696678   T   T   T
