Sr Co O 
 1.0000000000000000
     4.0196903716024686   -0.0000000000000000    3.6541058139317983
    -0.0000000000000000   -7.6882349178633884    0.0000000000000000
     4.0468788838213703    0.0000000000000000   -7.3371984759944384
 Sr  Co  O  
   6   6  12
Selective dynamics
Direct
  0.0000000000000000 -0.0044744579748775 -0.0000000000000000   T   T   T
  0.3038670358332676 -0.0012232994405823  0.6666727600984771   T   T   T
  0.6961329641667310 -0.0012232994405823  0.3333272399015237   T   T   T
  0.0000000000000000  0.5044744579748771 -0.0000000000000000   T   T   T
  0.3038670358332676  0.5012232994405819  0.6666727600984771   T   T   T
  0.6961329641667310  0.5012232994405819  0.3333272399015237   T   T   T
  0.4999999999999993  0.7499999999999994  0.0000000000000002   T   T   T
  0.7989588819698185  0.7499999999999994  0.6727617997172525   T   T   T
  0.2010411180301796  0.7499999999999994  0.3272382002827481   T   T   T
  0.4999999999999993  0.2499999999999999  0.0000000000000002   T   T   T
  0.8503552533575398  0.2499999999999999  0.6855457571139097   T   T   T
  0.1496447466424585  0.2499999999999999  0.3144542428860907   T   T   T
  0.1384602318950083  0.7499999999999994  0.8156024770610694   T   T   T
  0.4999999999999993 -0.0064913007357631  0.0000000000000002   T   T   T
  0.5000000000000000  0.7499999999999994  0.5000000000000006   T   T   T
  0.7711960713257696  0.0044722525604375  0.6836235669708830   T   T   T
  0.8615397681049910  0.7499999999999994  0.1843975229389311   T   T   T
  0.2288039286742292  0.0044722525604375  0.3163764330291180   T   T   T
  0.1772609157203525  0.2499999999999999  0.8577435111499623   T   T   T
  0.4999999999999993  0.5064913007357631  0.0000000000000002   T   T   T
  0.7711960713257696  0.4955277474395624  0.6836235669708830   T   T   T
 -0.0000000000000001  0.2499999999999999  0.5000000000000000   T   T   T
  0.8227390842796473  0.2499999999999999  0.1422564888500391   T   T   T
  0.2288039286742292  0.4955277474395624  0.3163764330291180   T   T   T
