Sr Co O 
 1.0000000000000000
    -4.0395497254144423    4.1179533804765462    0.0079548485812535
     0.0577325802890412    4.1896485136882564    7.7823249558022889
     3.8925434576937294    8.0897707635374481    0.1740381923359468
 Sr  Co  O  
   6   6  12
Selective dynamics
Direct
  0.0750708146742089 -0.0314838004846002 -0.0121271649190582   T   T   T
  0.7969447436470101  0.5352639116553208  0.8133129005849199   T   T   T
  0.6585978152279024 -0.0096657130968895  0.6867559945017087   T   T   T
  0.5134869158943867  0.4828149139590548  0.5062451645204535   T   T   T
  0.3037875277218512 -0.0045013745609255  0.3472047041758677   T   T   T
  0.1869457402379451  0.5358793208219732  0.1521868447574948   T   T   T
  0.7642192589063155  0.2408302188539116  0.2670862215911436   T   T   T
  0.6055318411667152  0.7593825149991653  0.1012198206021501   T   T   T
  0.2828489612642148  0.3003181118255399  0.9107599398996308   T   T   T
  0.1956678780509978  0.7548955507155733  0.7451110991312865   T   T   T
  0.1242194616126081  0.2433091070702929  0.5561674949825576   T   T   T
  0.9483101703791900  0.7227143252241846  0.4076732037072502   T   T   T
  0.0597132346414446  0.1881173830551321  0.1080568964819797   T   T   T
  0.9167901115952042  0.7684760753884385  0.9437450334498438   T   T   T
  0.4729073410307064  0.7372517456527924  0.9473540514143425   T   T   T
  0.3034665864923452  0.2271176566336261  0.7412949206502716   T   T   T
  0.3826743500021991  0.5068248431605402  0.8205425447542428   T   T   T
 -0.0041491977598343  0.7777850365386627  0.5827534330846822   T   T   T
  0.2641387966987911 -0.0171209275086177  0.6373293843611835   T   T   T
  0.4216031883570702  0.2696155054823017  0.3221181976518744   T   T   T
  0.8649521107304082  0.2336182742277957  0.4492112086898042   T   T   T
 -0.0749462508646626  0.4796356760810087  0.5418286960889901   T   T   T
  0.2923405044405019  0.7353663818398876  0.2590483769858398   T   T   T
  0.7282114760911914  0.8135552910896342  0.2484543533412222   T   T   T
