Sr Co O 
 1.0000000000000000
    -4.0112816911386782    0.0145447963680885   -4.2156859910499644
     0.2751886610152891   -7.5185674422754039   -0.2287496608225119
    -4.0960518678689182    4.1278065137811062    8.5002961433453290
 Sr  Co  O  
   6   6  13
Selective dynamics
Direct
 -0.0538447996965439  0.0047494120436064  0.0249843076662914   T   T   T
  0.6949774290385445  0.1814094135193132  0.3537743550455036   T   T   T
  0.3838005049181893  0.3662635402223765  0.6490405149047463   T   T   T
 -0.0664302210502209  0.5056821110585890  0.0405212364389588   T   T   T
  0.6435455667034278  0.6426973037069188  0.3288377983275567   T   T   T
  0.3900978192954111  0.8650660531768913  0.6481245458197604   T   T   T
  0.4016283910774818  0.7563782080526906 -0.0077426820531484   T   T   T
  0.1960440998618355  0.9467952170406360  0.3669701421032173   T   T   T
  0.8725854931067198  0.0564859105439944  0.6418096365978988   T   T   T
  0.4709137376835896  0.2199982450280602  0.0034049103183178   T   T   T
  0.1715274726708000  0.4258219362908108  0.3437349298500303   T   T   T
  0.9017829268687043  0.6418734482750020  0.6782529199989874   T   T   T
  0.6827617559394310  0.7883214632810776  0.1533203117621091   T   T   T
  0.4795398824455563 -0.0675787985465698 -0.0813044141225621   T   T   T
  0.5540595794117128  0.0492368197622935  0.5144735046496204   T   T   T
  0.2008428270695518  0.1433752049031218  0.3035743310687943   T   T   T
  0.0549031564721918  0.0768981776562399  0.5323121479744691   T   T   T
  0.7892714425405618  0.3271977066916449  0.1812333029828036   T   T   T
  0.5313896470806885  0.2764028966900613 -0.1381265310817106   T   T   T
  0.2641056459223422  0.3140094656327075  0.1055740504804641   T   T   T
  0.5674150983266940  0.5204061512906876  0.5199358216651974   T   T   T
  0.1976018586945342  0.6803519711528442  0.3262088811009867   T   T   T
  0.0718919276960489  0.5360249626579150  0.5355223629501740   T   T   T
  0.0635363516706396  0.6463974480256371  0.8874022098465703   T   T   T
  0.8693859099096007  0.9290688719458804  0.7548281904834496   T   T   T
