Sr Co O 
 1.0000000000000000
     3.9255876422352860   -0.1055398807705522    3.9561997954822958
     0.2153423859839619   -8.0818494118096353   -0.0046598614658799
     3.8943428426886433   -0.1139922686027301   -7.8797163643560708
 Sr  Co  O  
   6   6  13
Selective dynamics
Direct
  0.0274793925165964  0.0235732812392283  0.0232606829647600   T   T   T
  0.3131782821467816  0.0390120415764057  0.6445200081582788   T   T   T
  0.6746387576223513  0.0335740221986362  0.3412499384613190   T   T   T
 -0.0090759512320825  0.4674831867048219  0.0009443333874716   T   T   T
  0.3248412051186443  0.4649842718814231  0.6520742112309872   T   T   T
  0.6428588571971338  0.4705098388858640  0.3213570325011881   T   T   T
  0.5261216739416356  0.7288722521617781  0.0085535743849990   T   T   T
  0.7517917674836504  0.7776239960080775  0.6923118245713364   T   T   T
  0.2403276987408731  0.7484345711965145  0.3326145640674227   T   T   T
  0.4885267335315515  0.2684436974436785 -0.0084970352785446   T   T   T
  0.8310959745765502  0.2243903515944651  0.6677106849589581   T   T   T
  0.1500204782337827  0.2611394267747627  0.3274061707781273   T   T   T
  0.4175132104705258  0.8128341954723569  0.1678819125985915   T   T   T
  0.7763154388903392  0.7672248981673376  0.9120201917601173   T   T   T
  0.5417025062120460  0.6655831958852342  0.5264515705458512   T   T   T
  0.8733480953551886 -0.0275762848873893  0.6446481491845387   T   T   T
  0.1354973660879188 -0.0326440313073489  0.3503195443390852   T   T   T
  0.3306185494596093  0.2474551337605088  0.1637120223850339   T   T   T
  0.1748123680028069  0.2141396434224800  0.8366540368430079   T   T   T
  0.4060829673223893  0.5204970444140298 -0.0497018971958152   T   T   T
  0.6675970329222536  0.2547806706498949  0.8278236946221558   T   T   T
  0.4918469829032783  0.2561792660899468  0.4973057476538302   T   T   T
 -0.0131460990239619  0.2806375066783505  0.5035582259349405   T   T   T
  0.8120845568898160  0.2405506034659061  0.1556846814404682   T   T   T
  0.0905888371827889  0.5422971829259348  0.2934695475055758   T   T   T
