Sr Co O 
 1.0000000000000000
     4.0745807635908795   -0.0969450761466713    4.0936759221342163
     3.9731709286153962   -3.7368396889149547   -3.8921554619833922
     3.9822452440865659    7.7809352247366830   -4.1991996028216771
 Sr  Co  O  
   6   6  13
Selective dynamics
Direct
 -0.0439780408149875 -0.0182783801251509  0.0071609537460717   T   T   T
  0.4931373991156990  0.6593965428294499  0.7931247443276569   T   T   T
  0.0147136232540500  0.3203621032620726  0.6965011977175141   T   T   T
  0.5663285341667766 -0.0042095816274466  0.4949056044146319   T   T   T
  0.0486674977784763  0.6499572730991642  0.3700518726386859   T   T   T
  0.4297571969144015  0.3569814199564931  0.1270738023163642   T   T   T
  0.5248193517329668  0.8208991296279494  0.1950541215387585   T   T   T
 -0.0935549098427888  0.4917041115701472  0.0096424265831084   T   T   T
  0.5022883238890532  0.1513365868538335  0.8001279031937698   T   T   T
  0.0176223533918474  0.8456628879035692  0.6821446114898986   T   T   T
  0.5942908248728133  0.4747024148422782  0.4897605410142356   T   T   T
 -0.0014653912746974  0.1610857148312252  0.3024699756690465   T   T   T
  0.2737216783481717  0.0199476995804041  0.2144774836066172   T   T   T
  0.6765079772884198  0.6985479196560012  0.0323242566384519   T   T   T
  0.7015014616709593  0.2865104577264655  0.9339534781856660   T   T   T
  0.1720129486707475  0.4835630456669509  0.9104821344532366   T   T   T
  0.2195566056422106 -0.0134609191977743  0.8093806507677321   T   T   T
  0.4346983627290972  0.3219950501971630  0.6332379931696871   T   T   T
  0.7617412871753720 -0.0242470820726724  0.7480098116628765   T   T   T
  0.8082522621432771  0.6634943480111123  0.5970572780211304   T   T   T
  0.2554178717636398  0.7753305324295059  0.5796771759824235   T   T   T
  0.4648950975552668  0.5870605266464024  0.3189351254294972   T   T   T
  0.8635664298619802  0.2843887125315624  0.4573117286956326   T   T   T
  0.7987150310747012 -0.0597074482298768  0.2773681764747791   T   T   T
  0.0167861912915229  0.4003102427540670  0.1864336533804540   T   T   T
