Sr Co O 
 1.0000000000000000
    -3.9077795913376674    3.9828939135937147    3.8624731494615481
    -3.9077795913376674   -3.9828939135937147    3.8624731494615476
     3.9712272786049736    0.0000000000000001    7.7884273807567395
 Sr  Co  O  
   6   6  12
Selective dynamics
Direct
  0.0058456504240726 -0.0204359597519057 -0.0070951268578056   T   T   T
  0.1600038880140287  0.1723278783930260  0.3597091727394486   T   T   T
  0.3145224400102137  0.3558544573893505  0.6883844715613130   T   T   T
  0.4795640402480937  0.5058456504240730 -0.0070951268578051   T   T   T
  0.6723278783930263  0.6600038880140310  0.3597091727394494   T   T   T
  0.8558544573893486  0.8145224400102147  0.6883844715613118   T   T   T
  0.1613861475474319  0.6613861475474342  0.3328312605076400   T   T   T
  0.3219692386123852  0.8219692386123877  0.6578997637846354   T   T   T
  0.4811807485079836 -0.0188192514920175  0.0578600086259382   T   T   T
  0.6568955510950474  0.1568955510950465  0.3752467531281258   T   T   T
  0.8495864581634021  0.3495864581634019  0.6772844283422131   T   T   T
 -0.0047246847281305  0.4952753152718711  0.0081061947000220   T   T   T
  0.0395194578109257  0.5395194578109280  0.2114849723003953   T   T   T
  0.2967544947687315  0.7967544947687345  0.1443077149659611   T   T   T
  0.2764484254641429  0.7764484254641453  0.4561027511690323   T   T   T
  0.1299840827717884  0.0935197457378684  0.6704262116505130   T   T   T
  0.7252314797842684  0.2252314797842683  0.5340768255232369   T   T   T
  0.2892198026581140  0.2349274300277689 -0.0170289704760314   T   T   T
  0.5763937450482631  0.0763937450482629  0.2313502503170883   T   T   T
  0.0239362608008742  0.5239362608008759  0.5210142321086341   T   T   T
  0.5935197457378671  0.6299840827717891  0.6704262116505142   T   T   T
  0.8607420229059709  0.3607420229059712  0.8985580508256552   T   T   T
  0.1655777830483474  0.6655777830483495  0.8384186608063294   T   T   T
  0.7349274300277677  0.7892198026581150 -0.0170289704760314   T   T   T
