Sr Co O 
 1.0000000000000000
    -3.9630836628177595    3.9811615636080022   -0.1075709061506635
     0.0540444666482768    3.8199370324555111    7.8471617551762476
     3.8189332820903972    7.8163364503752097   -0.0607420440322217
 Sr  Co  O  
   6   6  12
Selective dynamics
Direct
  0.0358417844563056 -0.0269599490278172  0.0180760206943216   T   T   T
  0.8277994139640303  0.5278181373340874  0.8138523262972619   T   T   T
  0.6738809430540814  0.0103823460954068  0.6529881174011805   T   T   T
  0.4849960589358645  0.5272778236451972  0.4775663336119313   T   T   T
  0.2978783103498206 -0.0013058370388802  0.3538605134314986   T   T   T
  0.1417834645318542  0.4787378618441727  0.1966135286413858   T   T   T
  0.7824612399653359  0.2352754314384214  0.2405127243189203   T   T   T
  0.5776901458766616  0.7085429700028372  0.0927655670461063   T   T   T
  0.4130459221743319  0.2920472156934545  0.9075463088196615   T   T   T
  0.2602378119857876  0.7723817645099347  0.7420849213329915   T   T   T
  0.0095130744816823  0.2488329666050722  0.6118282772800495   T   T   T
  0.9333936406501271  0.7521184862450392  0.4019625758879556   T   T   T
  0.7442888956168362 -0.0009705367568767  0.3371876485584656   T   T   T
  0.1477553839823532  0.2103270218311255  0.0875249807695001   T   T   T
  0.6108010203902456  0.4572490251246650  0.1363876005740152   T   T   T
  0.4628404848659031  0.7773843070377199  0.8835286761783058   T   T   T
  0.7424222739462497  0.1837983528060939  0.8347464190633270   T   T   T
  0.3699256036063079  0.5281757279974826  0.7851269081583231   T   T   T
  0.0379970471015111  0.7822649389659196  0.6094878671421682   T   T   T
  0.2197045192879371  0.0229993017745652  0.6571172257749974   T   T   T
  0.8420774430238345  0.2736036613990302  0.4331306870590191   T   T   T
  0.0406842953699170  0.4864326156932970  0.5197376568477184   T   T   T
  0.2773495362526258  0.7811356808030290  0.2530015531605130   T   T   T
  0.8156316863705567  0.7224505638948217  0.2033655677620100   T   T   T
