Sr Co O 
 1.0000000000000000
    -3.7666459759622910    3.8946152822796170    4.2382106883063217
    -3.6982302731183010   -3.7542532645546833    4.1759159182106318
     3.8436903121838699    0.0375156812992396    8.5143235325487936
 Sr  Co  O  
   6   6  12
Selective dynamics
Direct
  0.0079403182094106  0.0434900459224545  0.0312665210512318   T   T   T
  0.1651752553778616  0.1454418805497462  0.3153305846192351   T   T   T
  0.3277743834466412  0.3296324621857940  0.6647240127176219   T   T   T
  0.5271566308108425  0.5152242940212693  0.0104147213085197   T   T   T
  0.6446298312980768  0.6824033315831817  0.3296115775912514   T   T   T
  0.8294278391374053  0.8004633844216777  0.6443834060207937   T   T   T
  0.1756608464940178  0.6556652421423940  0.3455259000821119   T   T   T
  0.3026059329741734  0.7680154441099013  0.6919894614621330   T   T   T
  0.5227329722832240  0.0131132060092033  0.0080374750520411   T   T   T
  0.6630757894973871  0.1796305611127742  0.3296192669626024   T   T   T
  0.8015896460768659  0.3228855583423911  0.6587007714542400   T   T   T
  0.0163457404396302  0.5438812347189362 -0.0152271970630898   T   T   T
  0.3485703600794866  0.8162210669945374  0.1686433151087764   T   T   T
  0.8949459605380339  0.8632514334135349  0.3400298648931722   T   T   T
  0.2177656096103263  0.7699595700925781  0.5214766318599533   T   T   T
  0.2827313536117094  0.2724640714718592 -0.0492066409672938   T   T   T
  0.5966390605221628  0.1084379379264801  0.1574533227898846   T   T   T
  0.8577660396701703  0.3803741443372669  0.1836758166185909   T   T   T
  0.3391616388281292  0.3501556788300736  0.3912167373473794   T   T   T
  0.7368258403920135  0.2012558823632685  0.5355504968228176   T   T   T
  0.5947133070893894  0.6150502036650046  0.6268667630053140   T   T   T
  0.9376472275978374  0.3464355930662279  0.7857584083693014   T   T   T
  0.2049864971708329  0.7467076858819370  0.9017260921780025   T   T   T
  0.7541318391492359  0.7798401649666982 -0.0775673798454574   T   T   T
