Sr Co O 
 1.0000000000000000
    -3.9564082815658614    4.0207604192160487   -0.0508174448242423
     0.0626875650110111    3.9788775445372386    7.8469200113015525
     3.8816234144470152    7.9686077282662415    0.0248502862910511
 Sr  Co  O  
   6   6  12
Selective dynamics
Direct
  0.0380101760889478 -0.0321413638292969 -0.0090844005111243   T   T   T
  0.8615182794678762  0.5119177901376488  0.8271818007664196   T   T   T
  0.6982365949265005 -0.0294790666805843  0.6979236144690321   T   T   T
  0.5117912578081543  0.4947073934848519  0.5077419321039124   T   T   T
  0.3382605487001856 -0.0323781237800220  0.3241009918567999   T   T   T
  0.1933247832689742  0.5272362570835187  0.1455360965721809   T   T   T
  0.7634248063949047  0.2368642572096409  0.2594440153388020   T   T   T
  0.6003312817760185  0.7560283508840985  0.0842676135573639   T   T   T
  0.3812734070737788  0.2519168634545919  0.9366094961637852   T   T   T
  0.2610240539590181  0.7482790034138196  0.7531033017575369   T   T   T
  0.1372553677695935  0.2331995244864607  0.5196064887492338   T   T   T
  0.9724709648074099  0.6995664954357664  0.4241777065969803   T   T   T
  0.0155523045993759  0.2334991756501817  0.0570349191235481   T   T   T
  0.9400483023176068  0.7163386643460917  0.9457593957477928   T   T   T
  0.4771508739247310  0.7203489198907059  0.9086783409800069   T   T   T
  0.5711515406540172  0.0346502093912169 -0.0244913840189189   T   T   T
  0.4135545770919812  0.4737741064194154  0.8084482867864170   T   T   T
  0.0661812026547219  0.7716151342293331  0.5770858950977417   T   T   T
  0.2352124159464836  0.0067301359561632  0.6757449876252587   T   T   T
  0.4156619329503872  0.2425726306532870  0.2953467514516226   T   T   T
  0.8212305375517311  0.2381308605367266  0.4560288449176325   T   T   T
  0.0615449687273352  0.4493440489087729  0.5529560937139053   T   T   T
  0.2552895123460027  0.7588976774352041  0.2242971412710003   T   T   T
  0.7205002416548074  0.7383810849837362  0.3025020741138553   T   T   T
