Sr Co O 
 1.0000000000000000
    -3.8962017128219792    3.7156251786676298    4.1723165325513722
    -3.8962017128219792   -3.7156251786676298    4.1723165325513714
     3.9092076985787370   -0.0000000000000000    8.3581115643535480
 Sr  Co  O  
   6   6  15
Selective dynamics
Direct
 -0.0194991030156660 -0.0115305677289793 -0.0251033732650497   T   T   T
  0.1783807560652799  0.1893490370785364  0.3383613068807330   T   T   T
  0.3302962973707612  0.3258510789665890  0.6761419546243391   T   T   T
  0.4884694322710224  0.4805008969843346 -0.0251033732650477   T   T   T
  0.6893490370785371  0.6783807560652794  0.3383613068807327   T   T   T
  0.8258510789665914  0.8302962973707625  0.6761419546243446   T   T   T
  0.1678925705783952  0.6678925705783952  0.3430510477081904   T   T   T
  0.3390101344142810  0.8390101344142816  0.6621628556242377   T   T   T
  0.4899082867674572 -0.0100917132325449 -0.0193378975501531   T   T   T
  0.6818440965687729  0.1818440965687689  0.3370157404482845   T   T   T
  0.8303873248307839  0.3303873248307808  0.6633224562659024   T   T   T
 -0.0230024296399599  0.4769975703600417 -0.0015553615069055   T   T   T
  0.1309649279910461  0.6309649279910485  0.1752475440233374   T   T   T
  0.2805665500309746  0.7805665500309743  0.4292810426685885   T   T   T
  0.5234286329227100  0.0234286329227066  0.4938296468720048   T   T   T
  0.0842313053485427  0.0687223663557713  0.6531103490623491   T   T   T
  0.4000374873031030  0.9000374873031043  0.8413080308188533   T   T   T
  0.6566780477912234  0.1566780477912207  0.8250138726546649   T   T   T
  0.2434963069676224  0.2058665640737814  0.0383388287123861   T   T   T
  0.6127762252199495  0.1127762252199482  0.1899817583990358   T   T   T
  0.8449232863478947  0.3449232863478903  0.1946360106042692   T   T   T
  0.7520510462466156  0.2520510462466118  0.4882606571341448   T   T   T
  0.0140392563294181  0.5140392563294183  0.5017601510933584   T   T   T
  0.5687223663557714  0.5842313053485431  0.6531103490623511   T   T   T
  0.8985019048636356  0.3985019048636330  0.8392672748536726   T   T   T
  0.1381620758825212  0.6381620758825228  0.8417236254694994   T   T   T
  0.7058665640737827  0.7434963069676218  0.0383388287123872   T   T   T
