Sr Co O 
 1.0000000000000000
    -3.9556012804301859    3.9629339572496756    0.0229048889960058
     0.0122889855856588    4.0213607807274485    7.7698760135388492
     3.8977721528222493    7.8678731869454053    0.0937649124010329
 Sr  Co  O  
   6   6  15
Selective dynamics
Direct
 -0.0011141426423004 -0.0140452134998678 -0.0048125292938582   T   T   T
  0.8440589881933303  0.5208591071874975  0.8139069198769714   T   T   T
  0.6653080590698280 -0.0096684879690307  0.6640533303127987   T   T   T
  0.5013586075968373  0.5096684879690303  0.5026133363538657   T   T   T
  0.3226076784733371 -0.0208591071874975  0.3527597467896942   T   T   T
  0.1677808093089674  0.5140452134998682  0.1714791959605247   T   T   T
  0.7165212230949002  0.2193674304112194  0.2709690529288729   T   T   T
  0.5833333333333328  0.7500000000000004  0.0833333333333323   T   T   T
  0.4501454435717677  0.2806325695887807  0.8956976137377929   T   T   T
  0.2461317205030576  0.7561978040512767  0.7501199271853053   T   T   T
  0.0833333333333334  0.2499999999999999  0.5833333333333328   T   T   T
  0.9205349461636079  0.7438021959487230  0.4165467394813591   T   T   T
  0.8829737204840322 -0.0085960184496342  0.3028805234673514   T   T   T
  0.5833333333333334  0.2499999999999999  0.0833333333333331   T   T   T
  0.8835721254456216  0.7712461425632781  0.9188065879909381   T   T   T
  0.4230858489749852  0.7567933917589198  0.9260126184104697   T   T   T
  0.7525300250037880  0.2169432152161951  0.7465974296084920   T   T   T
  0.2331716578057215  0.2231002345993092  0.8265831717170237   T   T   T
  0.2836929461826357  0.5085960184496338  0.8637861431993148   T   T   T
  0.5833333333333338  0.7500000000000001  0.5833333333333327   T   T   T
  0.0833333333333328  0.7500000000000003  0.5833333333333321   T   T   T
  0.1879350478248631  0.0109311106291459  0.6458766484817163   T   T   T
  0.4141366416628786  0.2830567847838050  0.4200692370581733   T   T   T
  0.9334950088609447  0.2768997654006911  0.3400834949496420   T   T   T
 -0.0212683811581969  0.4890688893708541  0.5207900181849492   T   T   T
  0.2830945412210440  0.7287538574367224  0.2478600786757259   T   T   T
  0.7435808176916815  0.7432066082410806  0.2406540482561951   T   T   T
