Sr Co O 
 1.0000000000000000
    -3.7242444790324711    0.0000000000000000    0.0000000000000000
     0.0000000000000000    3.9813634750045526    3.9267088874879503
     0.0000000000000000   15.9080334811302251  -15.6875802789034857
 Sr  Co  O  
   8   8  21
Selective dynamics
Direct
 -0.0000000000000000 -0.0093718621101107 -0.0033527829596918   T   T   T
 -0.0000000000000000  0.5093718621101145  0.8783527829596920   T   T   T
 -0.0000000000000000 -0.0312718901532898  0.7460631191640208   T   T   T
 -0.0000000000000000  0.4933529921448311  0.6246223060403296   T   T   T
  0.0000000000000000  0.0173654272205412  0.5033588542933071   T   T   T
 -0.0000000000000000  0.4826345727794598  0.3716411457066927   T   T   T
 -0.0000000000000000  0.0066470078551691  0.2503776939596697   T   T   T
  0.0000000000000000  0.5312718901532909  0.1289368808359782   T   T   T
  0.4999999999999996  0.5058298431461273 -0.0007902868275232   T   T   T
  0.4999999999999996 -0.0058298431461274  0.8757902868275224   T   T   T
  0.4999999999999996  0.4944318452923804  0.7479345855410630   T   T   T
  0.4999999999999996 -0.0068573460397880  0.6247390754818333   T   T   T
  0.4999999999999996  0.4917987929125626  0.5019503893580546   T   T   T
  0.4999999999999996  0.0082012070874405  0.3730496106419459   T   T   T
  0.4999999999999996  0.5068573460397859  0.2502609245181663   T   T   T
  0.4999999999999996  0.0055681547076213  0.1270654144589370   T   T   T
 -0.0000000000000000  0.4581413505423046  0.0135334547262388   T   T   T
  0.4999999999999996  0.2500000000000029  0.9374999999999993   T   T   T
  0.4999999999999996  0.7500000000000012  0.9374999999999998   T   T   T
 -0.0000000000000000  0.0418586494576973  0.8614665452737610   T   T   T
  0.4999999999999996  0.7252833301859861  0.8109147675398124   T   T   T
 -0.0000000000000000  0.4382908717925480  0.7648320523655744   T   T   T
  0.4999999999999996  0.2273216248509487  0.6988820014402030   T   T   T
  0.4999999999999996  0.7202519800095586  0.6842051483278854   T   T   T
 -0.0000000000000000 -0.0063312112785812  0.6250799077632042   T   T   T
  0.4999999999999996  0.7605291827828181  0.5511573715153493   T   T   T
  0.4999999999999996  0.2653681746426144  0.5654205143600843   T   T   T
  0.0000000000000000  0.5429042211251085  0.4855345312773272   T   T   T
  0.4999999999999996  0.2500000000000016  0.4374999999999998   T   T   T
  0.0000000000000000 -0.0429042211251079  0.3894654687226720   T   T   T
  0.4999999999999996  0.7394708172171846  0.3238426284846504   T   T   T
  0.4999999999999996  0.2346318253573866  0.3095794856399153   T   T   T
 -0.0000000000000000  0.5063312112785807  0.2499200922367953   T   T   T
  0.4999999999999996  0.2726783751490510  0.1761179985597968   T   T   T
  0.4999999999999996  0.7797480199904427  0.1907948516721144   T   T   T
  0.0000000000000000  0.0617091282074541  0.1101679476344258   T   T   T
  0.4999999999999996  0.7747166698140170  0.0640852324601875   T   T   T
