Sr Co O 
 1.0000000000000000
     3.6895527223660460    0.0000000000000000    0.0000000000000000
     0.0000000000000000    8.2282212511396882   -0.0429998897146468
     0.0000000000000000   -0.0622944151115257   12.0168892456020497
 Sr  Co  O  
   6   6  13
Selective dynamics
Direct
  0.0000000000000000 -0.0031099279442015 -0.0306568653891413   T   T   T
  0.0000000000000000  0.0124979147065302  0.3572781625980629   T   T   T
  0.0000000000000000 -0.0221343542455003  0.6740259766192339   T   T   T
  0.0000000000000000  0.5037962736372011 -0.0084709593771931   T   T   T
  0.0000000000000000  0.4826992358163398  0.3234965538393756   T   T   T
  0.0000000000000000  0.5083714938605324  0.6885490167464599   T   T   T
  0.5000000000000000  0.2018332851226416  0.1717827510910968   T   T   T
  0.5000000000000000  0.2514678723915066  0.4958528990733146   T   T   T
  0.5000000000000000  0.2454300178109785  0.8383625226858630   T   T   T
  0.5000000000000000  0.7625288659537364  0.1547926430439009   T   T   T
  0.5000000000000000  0.7637706380159387  0.5004854570603284   T   T   T
  0.5000000000000000  0.7447831044267619  0.8302782892988332   T   T   T
  0.5000000000000000  0.2298576281210230  0.0222654620249941   T   T   T
  0.5000000000000000 -0.0306898388873761  0.2128822598627338   T   T   T
  0.5000000000000000  0.2623889620527944  0.3226157068798637   T   T   T
  0.0000000000000000  0.3271749240848604  0.5187888583228831   T   T   T
  0.5000000000000000  0.0139751817666373  0.5155913211699893   T   T   T
  0.0000000000000000  0.2436889274951230  0.8034752518521339   T   T   T
  0.5000000000000000  0.0135207373431177  0.8189631998200025   T   T   T
  0.5000000000000000  0.7704704145624349  0.0002003477040969   T   T   T
  0.5000000000000000  0.5472109619395690  0.1838473022050998   T   T   T
  0.0000000000000000  0.7313670966996673  0.4367580100119303   T   T   T
  0.5000000000000000  0.7133224350546270  0.6579404245796853   T   T   T
  0.0000000000000000  0.7479417636903827  0.8319297028590842   T   T   T
  0.5000000000000000  0.4778364246743246  0.8456324221821909   T   T   T
