Sr Co O 
 1.0000000000000000
     3.9889087315276250    0.1552870355049037    4.0264536420907380
    -0.1658020858122868   -8.5110349864505963   -0.1257335268598668
     3.7783313763519710   -0.0382279553883845   -7.8344696444132920
 Sr  Co  O  
   6   6  12
Selective dynamics
Direct
  0.0639628809062809  0.0297695238897118  0.0152603987813465   T   T   T
  0.2835004076836214  0.0304390070640152  0.5976060445986217   T   T   T
  0.6634356927890109  0.0207545337835128  0.3263836607542188   T   T   T
  0.0158906456395443  0.4957972321016961 -0.0310999366561544   T   T   T
  0.3253824027774584  0.4723976214328215  0.6512712452669299   T   T   T
  0.6633948700627904  0.4814035015163414  0.3618719656478262   T   T   T
  0.6430040014736287  0.7017044369049680  0.0462386686896030   T   T   T
  0.6905121270706156  0.8060539817108507  0.7018857651482320   T   T   T
  0.1425813772961661  0.7416239442427314  0.3474678180365998   T   T   T
  0.5018166964823311  0.2911486414873481  0.0071249150430681   T   T   T
  0.8889656269036881  0.2334094518088078  0.6672720687947434   T   T   T
  0.1223081540287584  0.2924224733185342  0.2788704509867767   T   T   T
  0.8592875664486765  0.7655441703931662  0.9234436421925482   T   T   T
  0.3503050732223781  0.7475377637276948  0.5925513147302345   T   T   T
  0.7517650710263448  0.0127247717973305  0.6258784560419820   T   T   T
  0.7556232117169501  0.7486675158550463  0.2684319544576984   T   T   T
  0.2126803674095637 -0.0423905288512867  0.3053110978459207   T   T   T
  0.4074121826068518  0.2479879642031097  0.2031382733752884   T   T   T
  0.2325282026627463  0.1947387656208454  0.8221358382049685   T   T   T
  0.4417514599518192  0.5224106852736535 -0.0477094579459573   T   T   T
  0.7617692447885440  0.4355860741349986  0.6662946901681809   T   T   T
  0.0051240695039996  0.2503160108757124  0.4629881182036206   T   T   T
  0.8478787954847600  0.2453481237324915  0.0668312528471660   T   T   T
  0.2024529156342652  0.5246045191483512  0.3072183680349362   T   T   T
