Sr Co O 
 1.0000000000000000
    -3.7598413774590469    0.0000000000000000    0.0000000000000000
     0.0000000000000000    4.0702537931541274    7.5230309638742989
     0.0000000000000000    8.2690457496568364   -3.8231217590923050
 Sr  Co  O  
   5   5  12
Selective dynamics
Direct
 -0.0000000000000000  0.0000000000000000  0.0000000000000000   T   T   T
 -0.0000000000000000  0.3988857191178943  0.7888389712678573   T   T   T
 -0.0000000000000000  0.7911131750307691  0.5807311304944752   T   T   T
  0.0000000000000000  0.2088868249692301  0.4192688695055250   T   T   T
  0.0000000000000000  0.6011142808821047  0.2111610287321427   T   T   T
  0.4999999999999999  0.3036034832907165  0.0918939988275656   T   T   T
  0.4999999999999999  0.6963965167092827  0.9081060011724350   T   T   T
  0.4999999999999999  0.0928904623096234  0.6963085067340591   T   T   T
  0.4999999999999999  0.4999999999999998  0.5000000000000007   T   T   T
  0.4999999999999999  0.9071095376903754  0.3036914932659406   T   T   T
  0.0000000000000000  0.3297102883084884  0.0766596187203866   T   T   T
  0.4999999999999999  0.1945202554006476  0.9218142823595235   T   T   T
 -0.0000000000000000  0.6702897116915113  0.9233403812796149   T   T   T
  0.4999999999999999  0.6266993624833034  0.7230390931462335   T   T   T
  0.0000000000000000  0.0412007099026057  0.7264226589113543   T   T   T
  0.4999999999999999 -0.0000000000000003  0.4999999999999993   T   T   T
  0.4999999999999999  0.3063363454357271  0.6127544266259038   T   T   T
 -0.0000000000000000  0.4999999999999998  0.5000000000000007   T   T   T
  0.4999999999999999  0.3733006375166957  0.2769609068537668   T   T   T
  0.4999999999999999  0.6936636545642719  0.3872455733740972   T   T   T
  0.0000000000000000  0.9587992900973926  0.2735773410886457   T   T   T
  0.4999999999999999  0.8054797445993513  0.0781857176404763   T   T   T
