Sr Co O 
 1.0000000000000000
     3.8263318178428838    0.0000000000000000    0.0000000000000000
     0.0000000000000000    7.9660343060841035    0.0000000000000000
     0.0000000000000000    0.0000000000000000   11.5555093279657282
 Sr  Co  O  
   6   6  12
Selective dynamics
Direct
  0.0000000000000000 -0.0073730885694993  0.0133201998921942   T   T   T
 -0.0000000000000000 -0.0073730885694993  0.3200131334411394   T   T   T
 -0.0000000000000000 -0.0221699996913590  0.6666666666666671   T   T   T
  0.0000000000000000  0.5073730885694995  0.0133201998921942   T   T   T
 -0.0000000000000000  0.5073730885694995  0.3200131334411394   T   T   T
  0.0000000000000000  0.5221699996913594  0.6666666666666671   T   T   T
  0.5000000000000000  0.2500000000000000  0.1666666666666669   T   T   T
  0.5000000000000000  0.2500000000000000  0.5025866469058250   T   T   T
  0.5000000000000000  0.2500000000000000  0.8307466864275084   T   T   T
  0.5000000000000000  0.7500000000000000  0.1666666666666669   T   T   T
  0.5000000000000000  0.7500000000000000  0.4931035383619988   T   T   T
  0.5000000000000000  0.7500000000000000  0.8402297949713342   T   T   T
 -0.0000000000000000  0.2500000000000000  0.1666666666666669   T   T   T
  0.5000000000000000 -0.0024233301751628  0.1666666666666669   T   T   T
  0.5000000000000000  0.0294206959820592  0.4644824329347197   T   T   T
  0.5000000000000000  0.2500000000000000  0.6666666666666671   T   T   T
  0.5000000000000000  0.0294206959820592  0.8688509003986141   T   T   T
 -0.0000000000000000  0.7500000000000000  0.1666666666666669   T   T   T
  0.5000000000000000  0.5024233301751632  0.1666666666666669   T   T   T
 -0.0000000000000000  0.7500000000000000  0.4595472784502188   T   T   T
  0.5000000000000000  0.4705793040179410  0.4644824329347197   T   T   T
  0.5000000000000000  0.7500000000000000  0.6666666666666671   T   T   T
  0.0000000000000000  0.7500000000000000  0.8737860548831147   T   T   T
  0.5000000000000000  0.4705793040179410  0.8688509003986141   T   T   T
