Sr Co O 
 1.0000000000000000
    -3.9208578371656979    0.0000000000000000   -3.9162399231963132
     0.0000000000000000   -8.6366569880224926    0.0000000000000000
    -3.4543714361880271    4.3183284940112463    7.3906151094965855
 Sr  Co  O  
   6   6  12
Selective dynamics
Direct
 -0.0052215630891977  0.0226834389639108  0.0075452399421118   T   T   T
  0.6666666666666684  0.2117856370044265  0.3333333333333340   T   T   T
  0.3385548964225316  0.3484715323551319  0.6591214267245549   T   T   T
 -0.0052215630891977  0.4848618009782014  0.0075452399421118   T   T   T
  0.6666666666666684  0.6215476963289075  0.3333333333333340   T   T   T
  0.3385548964225316  0.8106498943694226  0.6591214267245549   T   T   T
  0.4366751011563193  0.7511091890269406  0.0022183780538804   T   T   T
  0.1666666666666675  0.9166666666666672  0.3333333333333336   T   T   T
  0.8966582321770160  0.0822241443063928  0.6644482886127874   T   T   T
  0.4850964853638074  0.2409278994398860 -0.0181442011202281   T   T   T
  0.1666666666666675  0.4166666666666669  0.3333333333333336   T   T   T
  0.8482368479695271  0.5924054338934476  0.6848108677868954   T   T   T
  0.5296662097944411 -0.0432229838670067  0.0045030453289270   T   T   T
  0.1666666666666675  0.1220538881263138  0.3333333333333336   T   T   T
  0.2733408652218892  0.1218621208926981  0.7437242417853982   T   T   T
  0.8036671235388940  0.2856073041373997  0.6621636213377408   T   T   T
  0.8283443432486923  0.3209512705080494  0.1419025410160991   T   T   T
  0.5296662097944409  0.5477260291959339  0.0045030453289271   T   T   T
  0.3201198208716038  0.3270745274733529  0.1541490549467057   T   T   T
  0.5049889900846445  0.5123820628252844  0.5247641256505690   T   T   T
  0.1666666666666675  0.7112794452070199  0.3333333333333336   T   T   T
  0.0132135124617304  0.5062588058599805  0.5125176117199616   T   T   T
  0.0599924681114462  0.7114712124406340  0.9229424248812692   T   T   T
  0.8036671235388945  0.8765563172003403  0.6621636213377410   T   T   T
