Sr Co O 
 1.0000000000000000
    -3.9493395656900359    4.0911858488794248   -0.0167366808526737
    -0.1349770395831525    3.9216613156183691    7.8390658849762662
     3.7464989501609214    7.9808183914694881   -0.1359051329820055
 Sr  Co  O  
   6   6  13
Selective dynamics
Direct
  0.0000000000000000  0.0000000000000000  0.0000000000000000   T   T   T
  0.8440093289003789  0.5037461779496704  0.8129518387847035   T   T   T
  0.6764325681054003  0.0183097481733999  0.6498890087034048   T   T   T
  0.5000000000000000  0.4999999999999993  0.5000000000000001   T   T   T
  0.3235674318946007 -0.0183097481733998  0.3501109912965965   T   T   T
  0.1559906710996224  0.4962538220503278  0.1870481612152975   T   T   T
  0.8180171001517043  0.2379176097391489  0.2466088035691585   T   T   T
  0.5989948140943105  0.7089632190749541  0.1084446963992714   T   T   T
  0.4010051859056907  0.2910367809250437  0.8915553036007298   T   T   T
  0.1819828998482982  0.7620823902608492  0.7533911964308433   T   T   T
  0.0708633579123593  0.2456448899953309  0.6044865406880848   T   T   T
  0.9291366420876425  0.7543551100046672  0.3955134593119173   T   T   T
  0.7567517700005061  0.0141055938543551  0.3303906674797876   T   T   T
  0.1730052378000213  0.2018578464547227  0.0956882283250545   T   T   T
  0.6315104512919685  0.4616700209128579  0.1562419519896985   T   T   T
  0.8269947621999796  0.7981421535452764  0.9043117716749464   T   T   T
  0.7611358554167932  0.2340540866301805  0.8157825450701386   T   T   T
  0.2979368600221647  0.2630502932686226  0.7195468543849244   T   T   T
  0.3684895487080324  0.5383299790871398  0.8437580480103032   T   T   T
  0.0779647212451724  0.7597756275664217  0.5622582582013370   T   T   T
  0.2432482299994937 -0.0141055938543551  0.6696093325202134   T   T   T
  0.9220352787548279  0.2402243724335767  0.4377417417986643   T   T   T
  0.0000000000000001  0.4999999999999993  0.5000000000000001   T   T   T
  0.2388641445832073  0.7659459133698188  0.1842174549298619   T   T   T
  0.7020631399778358  0.7369497067313766  0.2804531456150765   T   T   T
