Sr Co O 
 1.0000000000000000
     4.0409774022291689    0.0415773770952185    3.8344755846579668
     4.0261932297600893   -4.3320729941286560   -3.8615670750868873
     3.9192767907798833    8.3111557069584858   -3.6216562453423511
 Sr  Co  O  
   6   6  12
Selective dynamics
Direct
  0.0164518975942321  0.0499390849779868  0.0206263143698811   T   T   T
  0.4616933241796627  0.7006909438027054  0.8249302825017615   T   T   T
 -0.0181476798653288  0.3183474461584929  0.6663113977411877   T   T   T
  0.5019138599508960 -0.0468599253358431  0.4581657379954739   T   T   T
  0.0517729595521162  0.6102586614042749  0.3659283410099814   T   T   T
  0.5211247501873512  0.3328371986082745  0.2075933619242583   T   T   T
  0.5839756724062487  0.8459853839338936  0.1339666273591866   T   T   T
 -0.0315322028019182  0.5411733121639193  0.0403964877046026   T   T   T
  0.4834016305099495  0.1253314154333577  0.8132099635507506   T   T   T
 -0.0006659576307768  0.8615548474798740  0.6584998217347948   T   T   T
  0.4691373098587787  0.4282680497318255  0.5508635479895423   T   T   T
 -0.0184663343141284  0.1523285080677710  0.3690378235736086   T   T   T
  0.4698778342813726  0.0406115228216688  0.0082902635138154   T   T   T
  0.8236531496080115  0.7305266011956261 -0.0288923861915758   T   T   T
  0.1465679975299439  0.0517866253654879  0.7838798837489109   T   T   T
  0.5528098929051549  0.3662365637718302  0.7381136183039626   T   T   T
  0.6569744741893857 -0.0799489917209250  0.6903535995139274   T   T   T
  0.0358034094215181 -0.0626031728599044  0.4722623926227183   T   T   T
  0.2004540922718447  0.6172493344278244  0.6209504097374067   T   T   T
  0.2817875084823248  0.2764518339122524  0.4171526812646004   T   T   T
  0.4673151364049045  0.6890081629600072  0.2655455258792994   T   T   T
  0.7704029929590464  0.3762310841887926  0.4500328998210442   T   T   T
  0.7636414148669776  0.0373999910296850  0.2429839420783952   T   T   T
  0.0600529540089261  0.3705288064059813  0.1464641056295200   T   T   T
