Sr Co O 
 1.0000000000000000
     0.0679155506528492   -3.9123920221698039   -4.0545156248557346
    -3.9671153725963415   -0.0207302200800339   -3.9672384550613522
     8.2053173170129181    7.6449825168202450  -12.1254576680416797
 Sr  Co  O  
   7   7  18
Selective dynamics
Direct
 -0.0041824908125757  0.0734213147046773  0.0041437770731029   T   T   T
  0.7244531352937560  0.7275195304657357  0.8449048544765988   T   T   T
  0.4082145927431997  0.4301372549461595  0.6999195553419781   T   T   T
  0.1300406118835182  0.1353456910398183  0.5641960011454272   T   T   T
  0.8496607637533785  0.8358466170123791  0.4440041000629166   T   T   T
  0.5765761332490608  0.5502293308217870  0.3090028143369751   T   T   T
  0.2654438081943719  0.3048330694101301  0.1639769893340203   T   T   T
  0.5523597149348043  0.7074105636182889  0.0708157551486583   T   T   T
  0.4392421809432667  0.3279285092545916  0.9381824937260054   T   T   T
  0.0278387241110028  0.0919765885606137  0.7684857310876475   T   T   T
  0.7657253130825902  0.7798485444436356  0.6438896156234600   T   T   T
  0.4910643215126288  0.4867670224876424  0.5043553375008843   T   T   T
  0.2182408795651587  0.2007233209728513  0.3647572078759860   T   T   T
  0.9572309922766343  0.9049424935370873  0.2396423207490748   T   T   T
  0.5329493934929772  0.0512251707708248  0.0356978757508694   T   T   T
  0.1792477160739493  0.3454548971035242 -0.1089567248706812   T   T   T
  0.4600052993997432  0.6165440076768816 -0.0261425927803020   T   T   T
  0.8061596018608093  0.1134418407986355  0.8728561326229440   T   T   T
  0.9444469125744559  0.4370292253227031  0.7189182939194014   T   T   T
  0.3961050202090958  0.8668585090520609  0.7434863464938165   T   T   T
  0.8699733627270577  0.9581571412237581  0.7101704407619088   T   T   T
  0.5790221309667865  0.1258809742986361  0.5785188383694382   T   T   T
  0.1481639182985446  0.6591452254334447  0.5683646452394724   T   T   T
  0.6661323287677900  0.6027449492359445  0.5817405017346305   T   T   T
  0.3992962246322490  0.8473560661530966  0.4303655481206378   T   T   T
  0.8353996951277941  0.3113959968411252  0.4397772852101230   T   T   T
  0.3188123021696592  0.3696817231040405  0.4277392931041302   T   T   T
  0.0280041925808102  0.5621168307925448  0.2948670118271521   T   T   T
  0.5891637935960562  0.1072261886813669  0.2701901204287339   T   T   T
  0.1266820622677873  0.0376832485878072  0.2911462372385713   T   T   T
  0.8184045287556986  0.4206005740661718  0.1170697148202971   T   T   T
  0.1858371481295243  0.7962418272567996  0.1367715376463559   T   T   T
