Sr Co O 
 1.0000000000000000
     3.9375597429674154    0.0000000000000000    4.2310760342645022
    -0.0000000000000000   -7.6679598695220879    0.0000000000000000
     3.7065564278909280    0.0000000000000000   -8.2373837140457411
 Sr  Co  O  
   6   6  12
Selective dynamics
Direct
  0.0354664236196310 -0.0028512536276188  0.0032775295004204   T   T   T
  0.3277298450395527 -0.0019148065706826  0.6463645618719256   T   T   T
  0.6708810911934131 -0.0119332156065514  0.3690969286416807   T   T   T
  0.0354664236196310  0.5028512536276183  0.0032775295004204   T   T   T
  0.3277298450395527  0.5019148065706824  0.6463645618719256   T   T   T
  0.6708810911934131  0.5119332156065515  0.3690969286416807   T   T   T
  0.5425809780114208  0.7499999999999996  0.0037407456122193   T   T   T
  0.8062404756782122  0.7499999999999996  0.6752975399554031   T   T   T
  0.1311831519591276  0.7499999999999996  0.3461929881898300   T   T   T
  0.5135699224199739  0.2499999999999999  0.0439091568793387   T   T   T
  0.9093332305199688  0.2499999999999999  0.6807028513866178   T   T   T
  0.0798729797144673  0.2499999999999999  0.2903586837647303   T   T   T
  0.3771133788244733  0.7499999999999996  0.1292414957128724   T   T   T
  0.7141750115106411  0.7499999999999996  0.8798479523602971   T   T   T
  0.4804929363406688  0.7499999999999996  0.4911251551678771   T   T   T
  0.7791950204213367  0.0227020401937800  0.6833978577065285   T   T   T
  0.0202798034221393  0.7499999999999996  0.5502022457755581   T   T   T
  0.0489581027655978 -0.0154903958585365  0.2850118528832502   T   T   T
  0.4047494536286330  0.2499999999999999  0.2150418916011017   T   T   T
  0.2655296331903392  0.2499999999999999  0.8383169563501407   T   T   T
  0.7791950204213367  0.4772979598062205  0.6833978577065285   T   T   T
  0.0302149994143740  0.2499999999999999  0.4969810974676356   T   T   T
  0.8335364201916311  0.2499999999999999  0.0514104852148338   T   T   T
  0.0489581027655978  0.5154903958585358  0.2850118528832502   T   T   T
