Sr Co O 
 1.0000000000000000
     3.7070553770140426   -0.0301398100080649    4.5051623791904758
     0.0631890727869254   -7.3302218940678889   -0.0018582197582752
     3.7116838573604238   -0.0356507985399433   -9.0223753537219444
 Sr  Co  O  
   6   6  13
Selective dynamics
Direct
  0.0125201677714338  0.0046886033460138 -0.0015191003313920   T   T   T
  0.3600778578970297  0.0067661472539699  0.6616104863796918   T   T   T
  0.6411254038365221  0.0137817901446128  0.3408398555586655   T   T   T
  0.0188592552135101  0.5002345225452776 -0.0104309677714473   T   T   T
  0.3817046801473331  0.4936342272011955  0.6789367379189843   T   T   T
  0.6422503498533166  0.5080796750706608  0.3529755206677881   T   T   T
  0.5154173459363635  0.7202002350472442  0.0054370735201419   T   T   T
  0.8512061450439382  0.7632986228085902  0.6508546360915179   T   T   T
  0.1496558493605311  0.7162816106669631  0.3641207041916855   T   T   T
  0.5648691645604438  0.2660943968437508  0.0293670798292972   T   T   T
  0.8473669154249353  0.2518347985511185  0.6487657112946819   T   T   T
  0.1110548252164382  0.2725078042555834  0.3380317220452635   T   T   T
  0.3790666688641041  0.7661433232788765  0.1383487585360083   T   T   T
  0.6580463296945182  0.7746622574084194  0.8781678914592966   T   T   T
  0.4803147249744212  0.7990666710717687  0.4848394886776737   T   T   T
  0.9747653271711244  0.0062556259023515  0.7330274161281251   T   T   T
  0.0009353881797464  0.7600610861004834  0.4988786746540862   T   T   T
  0.3731547741502605  0.2487931217919582  0.1349722145869547   T   T   T
  0.3897829369869083  0.4793408843643849 -0.0673688402745625   T   T   T
  0.6588495166858547  0.2387654673725122  0.8730672679354904   T   T   T
  0.4751108284075746  0.2445954603599469  0.4811361959796656   T   T   T
  0.8371239791186134  0.5088187580567560  0.6949972317252915   T   T   T
  0.0105396908821360  0.2649735935276734  0.5082473614082464   T   T   T
  0.8465908363823297  0.1205429999088869  0.1756426498921309   T   T   T
 -0.0137221778983241  0.5205783123116939  0.2403876366858441   T   T   T
