Sr Co O 
 1.0000000000000000
     3.7069533151455785    0.0000000000000000    0.0000000000000000
     0.0000000000000000    8.1544281871506961    0.0060068049615362
     0.0000000000000000    0.0091810394589591   11.8457875754239588
 Sr  Co  O  
   6   6  14
Selective dynamics
Direct
  0.0000000000000000 -0.0039530696674384 -0.0189109000167683   T   T   T
  0.0000000000000000  0.0109776353121393  0.3427938134292408   T   T   T
  0.0000000000000000  0.0182152609143332  0.6715088072691786   T   T   T
  0.0000000000000000  0.5057729206750639 -0.0021947468899966   T   T   T
  0.0000000000000000  0.4766900211327379  0.3403978514369252   T   T   T
  0.0000000000000000  0.4887079537506921  0.6684703749137655   T   T   T
  0.4999999999999994  0.2615265805777651  0.1703707501630159   T   T   T
  0.4999999999999994  0.2461435730108765  0.5017733930457463   T   T   T
  0.4999999999999994  0.2566679255503617  0.8304079620192472   T   T   T
  0.4999999999999994  0.7323998073484808  0.1825027596400701   T   T   T
  0.4999999999999994  0.7530094398158221  0.4991986509168169   T   T   T
  0.4999999999999994  0.7445002124641327  0.8184769990379610   T   T   T
  0.0000000000000000  0.2030993885821447  0.1362654028097963   T   T   T
  0.4999999999999994  0.2332811609673076  0.3338368148822753   T   T   T
  0.0000000000000000  0.2535869138812993  0.5005254506530811   T   T   T
  0.4999999999999994 -0.0236016785968316  0.5141844532817198   T   T   T
  0.4999999999999994  0.2581167910914032  0.6658230013854604   T   T   T
  0.0000000000000000  0.2545312260730471  0.8649735371606919   T   T   T
  0.4999999999999994  0.0063762774201146  0.8418278097626287   T   T   T
  0.0000000000000000  0.7896228614111626  0.1383777309727202   T   T   T
  0.4999999999999994  0.4990793436891154  0.1474014368527654   T   T   T
  0.4999999999999994  0.7828478435880458  0.3424739354671610   T   T   T
  0.4999999999999994  0.5305845090771748  0.4834593399969565   T   T   T
  0.4999999999999994  0.7295413063889279  0.6539717711352766   T   T   T
  0.0000000000000000  0.7469976908680588  0.8584376291335446   T   T   T
  0.4999999999999994  0.4952781710944040  0.8469792798335312   T   T   T
