Sr Co O 
 1.0000000000000000
     3.6606003710862161    0.0000000000000000    0.0000000000000000
     0.0000000000000000    8.2760781695407282   -0.0046385730656779
     0.0000000000000000   -0.0061495379393887   12.2467589848522653
 Sr  Co  O  
   6   6  13
Selective dynamics
Direct
  0.0000000000000000 -0.0287220710195048 -0.0251412030267377   T   T   T
  0.0000000000000000  0.0066128202431297  0.3616999090032834   T   T   T
  0.0000000000000000 -0.0337758253818006  0.6788081235960375   T   T   T
  0.0000000000000000  0.5374240815295236  0.0162002062628918   T   T   T
  0.0000000000000000  0.4891573080062764  0.3168934279274047   T   T   T
  0.0000000000000000  0.5061784141842148  0.6549599942387508   T   T   T
  0.4999999999999999  0.2369094174066864  0.1766207722745456   T   T   T
  0.4999999999999999  0.2431701801351282  0.5043964518702007   T   T   T
  0.4999999999999999  0.2614803224044234  0.8129090585162243   T   T   T
  0.4999999999999999  0.8087181516134863  0.1612047561537474   T   T   T
  0.4999999999999999  0.7558907123048690  0.5092063797757259   T   T   T
  0.4999999999999999  0.7056919860959904  0.8354771224022403   T   T   T
  0.4999999999999999  0.0443382771986293  0.1109114217821232   T   T   T
  0.4999999999999999  0.2164346413663742  0.3293200271094640   T   T   T
  0.0000000000000000  0.3138282713240484  0.4885705667626447   T   T   T
  0.4999999999999999 -0.0041658957283530  0.5134563207496613   T   T   T
  0.4999999999999999  0.2972067337945524  0.6627652010498286   T   T   T
  0.4999999999999999  0.0444787283915671  0.8290109483762499   T   T   T
  0.4999999999999999  0.7478869172996023  0.0020572800291881   T   T   T
  0.0000000000000000  0.7751102469946901  0.2155763204176235   T   T   T
  0.4999999999999999  0.4565877053285719  0.1658762139279934   T   T   T
  0.0000000000000000  0.6961275637850798  0.4676427522521657   T   T   T
  0.4999999999999999  0.7213457595743145  0.6698550500480159   T   T   T
  0.0000000000000000  0.7429955714357486  0.8329783519359323   T   T   T
  0.4999999999999999  0.4590899869084378  0.8754111954977085   T   T   T
