Sr Co O 
 1.0000000000000000
    -3.7763280979659459    4.3150116151973590    3.6798592986706038
    -3.7631322364424435   -4.2161880762512753    3.6207810824674267
     3.9993588847706696    0.0781756862104764    7.5165096492392172
 Sr  Co  O  
   6   6  12
Selective dynamics
Direct
  0.0101063009929188 -0.0019789690348499  0.0260609406637141   T   T   T
  0.1780659585104802  0.2145468636886607  0.3129399343783970   T   T   T
  0.3217400950624713  0.3297983214132062  0.6733572652369674   T   T   T
  0.5409813942777889  0.4673888663733950  0.0239934697135785   T   T   T
  0.6953483442857118  0.6385148322475992  0.3337126693786337   T   T   T
  0.8391244499475046  0.7891852251748507  0.6702790801367452   T   T   T
  0.1613147109363858  0.6883279970651831  0.3444972819410187   T   T   T
  0.3379030241274137  0.7780882616649577  0.6415289886581962   T   T   T
  0.5220024794255915 -0.0203422952452781  0.0018620436355905   T   T   T
  0.7074459886163518  0.1669783358684033  0.3724750198890876   T   T   T
  0.8155702082672986  0.3383410185711802  0.6719352953866902   T   T   T
  0.0159359662224480  0.5228637693407339 -0.0036983582255629   T   T   T
  0.1750450481136864  0.6149728381840714  0.1320687195573789   T   T   T
  0.8952697426045623  0.9099868390327330  0.3461564344993112   T   T   T
  0.3362261186209156  0.8434982381556330  0.4178823683128238   T   T   T
  0.3246364900667744  0.1931769496299201 -0.0025772640370678   T   T   T
  0.8651332455748980  0.3336568207366629  0.1850819555182673   T   T   T
  0.4622596317131619  0.3612578062987172  0.3552597338341130   T   T   T
  0.6843296806684359  0.1462192472713052  0.6139280970463782   T   T   T
  0.0193356775626102  0.4725997970836432  0.5040011579048617   T   T   T
  0.5656010156066770  0.5776349408437709  0.6977097429804414   T   T   T
  0.9374930083486681  0.3538086177308745  0.8513330247600812   T   T   T
  0.1189208853802196  0.7643849057810100  0.8087373111710590   T   T   T
  0.7202102398399207  0.7670911246082869  0.0214749451166525   T   T   T
