Sr Co O 
 1.0000000000000000
    -3.8882125338829203   -0.0000000000000000   -3.8882125338829190
     0.0000000000000000   -7.6226784853623135   -0.0000000000000000
    -3.9096707354097586    3.8113392426811568    7.7978832692926812
 Sr  Co  O  
   6   6  14
Selective dynamics
Direct
 -0.0094047285057164 -0.0094047285057164 -0.0188094570114328   T   T   T
  0.6644583187031714  0.1644583187031712  0.3289166374063429   T   T   T
  0.3355416812968273  0.3355416812968276  0.6710833625936558   T   T   T
  0.0094047285057161  0.5094047285057163  0.0188094570114323   T   T   T
  0.6764402785830512  0.6764402785830517  0.3528805571661033   T   T   T
  0.3235597214169473  0.8235597214169478  0.6471194428338953   T   T   T
  0.5000000000000000  0.7499999999999997 -0.0000000000000007   T   T   T
  0.1664448683897168  0.9178913125976468  0.3328897367794340   T   T   T
  0.8335551316102818  0.0850015758182115  0.6671102632205647   T   T   T
  0.5000000000000000  0.2499999999999998 -0.0000000000000007   T   T   T
  0.1664448683897168  0.4149984241817875  0.3328897367794340   T   T   T
  0.8335551316102818  0.5821086874023526  0.6671102632205647   T   T   T
  0.6640994165852310  0.6469903869135512  0.8433571391878401   T   T   T
  0.8207422773973907  0.8530096130864470  0.1566428608121586   T   T   T
  0.3359005834147686  0.8530096130864475  0.1566428608121592   T   T   T
  0.4999999999999992  0.0337726562805040  0.4999999999999993   T   T   T
 -0.0000000000000005  0.0337726562805046  0.4999999999999998   T   T   T
  0.1792577226026082  0.1963667522742886  0.8433571391878406   T   T   T
  0.6640994165852310  0.1963667522742880  0.8433571391878401   T   T   T
  0.8207422773973907  0.3036332477257108  0.1566428608121586   T   T   T
  0.3359005834147686  0.3036332477257112  0.1566428608121592   T   T   T
  0.4999999999999992  0.4662273437194948  0.4999999999999993   T   T   T
  0.1684142316919937  0.6684142316919937  0.3368284633839878   T   T   T
 -0.0000000000000005  0.4662273437194952  0.4999999999999998   T   T   T
  0.1792577226026082  0.6469903869135517  0.8433571391878405   T   T   T
  0.8315857683080041  0.8315857683080050  0.6631715366160104   T   T   T
