Sr Co O 
 1.0000000000000000
    -3.9809241936289794    4.1075776403086568   -0.1349122307575667
     0.1277900886430559    3.9637498829726203    7.7567112708112598
     3.8894238123202007    8.1216742658723948   -0.0363965521711029
 Sr  Co  O  
   6   6  12
Selective dynamics
Direct
  0.0354430396011152 -0.0401162120882716 -0.0079328645388670   T   T   T
  0.8077685098650269  0.4874985977369634  0.8513077883878284   T   T   T
  0.7294129842669987 -0.0652545379289895  0.6995203604002905   T   T   T
  0.4227812834132249  0.5152678144362001  0.4932957777422557   T   T   T
  0.3586918782268925 -0.0086783468169302  0.2989055608880153   T   T   T
  0.1041125294528146  0.5194303217991078  0.1931436953070474   T   T   T
  0.7357358278205995  0.2137157212593115  0.3370959865124781   T   T   T
  0.5760390497347447  0.7515553349223001  0.0846384970967676   T   T   T
  0.4003996153119920  0.2452427321741541  0.8622659553459028   T   T   T
  0.2528915102516757  0.7151658754057036  0.7736250594385768   T   T   T
  0.1323891197447445  0.1998802859428908  0.5700817442858547   T   T   T
  0.9089029869924510  0.7866499495148237  0.3864450654846232   T   T   T
  0.9152271296422360  0.0437997158469651  0.2511391528742304   T   T   T
  0.9196101958862425  0.6948366670587258  0.9497342085088355   T   T   T
  0.4399607254244533  0.7340534493404135  0.9141034496496867   T   T   T
  0.5672864316659672  0.0351179394082961 -0.0271498721456385   T   T   T
  0.1386057488968635  0.2450185016356945  0.7685249628489517   T   T   T
  0.4283424128642755  0.4738784780816477  0.7876577982131361   T   T   T
  0.2147674955678837 -0.0474763102516012  0.6140577998284593   T   T   T
  0.3910368003762681  0.3013432532740483  0.3563975692919634   T   T   T
  0.8396449692767066  0.2963072241146694  0.4635537296974344   T   T   T
 -0.0215168267950724  0.6938079850344264  0.5980025571081411   T   T   T
  0.2502159483765798  0.7265413601525977  0.2432702274162033   T   T   T
  0.7022507892334897  0.7324141571219389  0.2883158150264680   T   T   T
