Sr Co O 
 1.0000000000000000
     3.6447093046497554    0.0000000000000000    0.0000000000000000
     0.0000000000000000    8.0577640889486766    0.0154342232550753
     0.0000000000000000    0.0203203353617899   12.3368281193764506
 Sr  Co  O  
   6   6  12
Selective dynamics
Direct
  0.0000000000000000 -0.0189556996825345 -0.0013787777026469   T   T   T
  0.0000000000000000 -0.0106164180121370  0.3514216747675209   T   T   T
  0.0000000000000000 -0.0360365869786087  0.6600144238704347   T   T   T
  0.0000000000000000  0.5171770274198287 -0.0152414804728899   T   T   T
  0.0000000000000000  0.4891394161322562  0.3383158427736641   T   T   T
  0.0000000000000000  0.4971019938365487  0.6837115093531663   T   T   T
  0.4999999999999998  0.2802298107143162  0.1560047541401620   T   T   T
  0.4999999999999998  0.2409550730747984  0.4801869390017212   T   T   T
  0.4999999999999998  0.2455145132482401  0.8444354211373549   T   T   T
  0.4999999999999998  0.7718079128583495  0.1733879720516756   T   T   T
  0.4999999999999998  0.7122075534830431  0.5010841458525324   T   T   T
  0.4999999999999998  0.7377363486171535  0.8371915121489549   T   T   T
  0.4999999999999998  0.1919913940771540  0.0045020331003765   T   T   T
  0.0000000000000000  0.3844515163505584  0.1596828726670519   T   T   T
  0.4999999999999998  0.2217333680398545  0.3212347988090582   T   T   T
  0.4999999999999998  0.0188333012153877  0.5126332067527698   T   T   T
  0.0000000000000000  0.2052332957418363  0.7789097411189836   T   T   T
  0.4999999999999998  0.7282805075986981  0.0178608322986592   T   T   T
  0.0000000000000000  0.8601038200705572  0.1813123985347065   T   T   T
  0.4999999999999998  0.7168370889826042  0.3488077969518936   T   T   T
  0.4999999999999998  0.4573623472162625  0.5203512078406424   T   T   T
  0.4999999999999998  0.7381710300874817  0.6488514124864000   T   T   T
  0.0000000000000000  0.8104005003370593  0.8328277529605354   T   T   T
  0.4999999999999998  0.4903410073299771  0.8305587224781970   T   T   T
