Sr Co O 
 1.0000000000000000
    -4.1040231592060872    4.2107644668706143   -0.2401345512248746
     0.2099281541360425    3.9217998793686784    7.4379776890176190
     3.7818843062358902    8.0936472114782312   -0.0146278161389682
 Sr  Co  O  
   6   6  12
Selective dynamics
Direct
  0.0361459697237465 -0.0036945303183568  0.0084086085146581   T   T   T
  0.8124716235052267  0.5115339795686430  0.8058318174389587   T   T   T
  0.7295826652915987  0.0170034227980954  0.6277294356476989   T   T   T
  0.4705676082509964  0.5233933421181838  0.4984200104659496   T   T   T
  0.3508370901150671 -0.0112499798485434  0.3575447258602721   T   T   T
  0.1407740104009021  0.4765988638323901  0.2137992059663644   T   T   T
  0.7146165271184673  0.2486646930748694  0.2313240461677708   T   T   T
  0.5571054316438822  0.8119581620592120  0.0993274285228525   T   T   T
  0.4138528826181881  0.2646210358810113  0.9191411007084364   T   T   T
  0.2608571670479770  0.7453159206444739  0.7408293951860463   T   T   T
  0.1360106332798152  0.2371691387255616  0.6169040801675092   T   T   T
  0.9222733573226968  0.7197835964386324  0.4258509916449294   T   T   T
  0.6371559123861742  0.2107312485080673  0.0656150922228644   T   T   T
  0.4953840524620444  0.0208007793657866 -0.0768534804407665   T   T   T
  0.2038661063103088  0.3091054915747191  0.7815536989248346   T   T   T
  0.3403508656554267  0.5127454136660879  0.9050637050366099   T   T   T
  0.5941557394644302  0.7951392852545198  0.5691844021098793   T   T   T
  0.0835093975099557  0.7478344979097681  0.5827958932063100   T   T   T
  0.0956896819452322 -0.0133134582047153  0.7289501077723761   T   T   T
  0.4303136931844976  0.2759530691065336  0.4117279457871849   T   T   T
  0.9825671387569519  0.1912114670973329  0.3102643230529706   T   T   T
 -0.1112197752753395  0.4449115435291246  0.5429175482273143   T   T   T
  0.2521897543441055  0.7331407141427660  0.2435474685411959   T   T   T
  0.7842757770136933  0.7306423102804599  0.2234557125026997   T   T   T
