Sr Co O 
 1.0000000000000000
    -3.8752063446180669    4.1309151454981121   -0.0923818442996268
     0.0410887641029483    3.9861961607796483    7.8281552129095804
     3.7068326260949465    8.0926135821393927   -0.0368152778221463
 Sr  Co  O  
   6   6  12
Selective dynamics
Direct
  0.0564823222821150 -0.0171101532403524 -0.0120678332797444   T   T   T
  0.8480191078914948  0.5162516549406090  0.8136195808322187   T   T   T
  0.6796852291892004  0.0049055747676700  0.6593327027883189   T   T   T
  0.4674568723865228  0.5318222190346407  0.4733150774478990   T   T   T
  0.3174878854842245 -0.0214819661620298  0.3675888675769784   T   T   T
  0.1508155787205816  0.5013844055869380  0.1876477303696761   T   T   T
  0.7691277478835227  0.2368007169886696  0.2744759115768836   T   T   T
  0.5867333670361465  0.7201197027249943  0.0853463697082427   T   T   T
  0.4244433283241865  0.3074292534558257  0.8519755303934684   T   T   T
  0.2626351448049991  0.7488561526996816  0.7622206202572885   T   T   T
  0.0370236388875045  0.2475630432923623  0.6084412291186954   T   T   T
  0.9113730180816150  0.7582522826836069  0.3874930324045057   T   T   T
  0.7565621728904698  0.0104540676633939  0.3433969218669043   T   T   T
  0.6195775417815380  0.4548663083372453  0.1768806996563438   T   T   T
  0.4825961087462629  0.7597594556074920  0.8864146788886469   T   T   T
  0.7438343695262605  0.1722774788277613  0.8334192797378687   T   T   T
  0.2848158771988333  0.2767480538091390  0.7044425018887398   T   T   T
  0.2535158278422481  0.5083012174731742  0.8938729020975479   T   T   T
  0.1006850629892704  0.7445903029658145  0.6115089122248230   T   T   T
  0.2265094768423384 -0.0134379827955826  0.6652993529014407   T   T   T
  0.9883489468568212  0.2351082439600904  0.3975924407171926   T   T   T
 -0.1193460209412503  0.5215033312710992  0.5228881377541552   T   T   T
  0.2621967922177879  0.7890494553069215  0.2411333213554240   T   T   T
  0.8060872718758614  0.7559872050539128  0.1804287611632363   T   T   T
