Sr Co O 
 1.0000000000000000
     4.0535023267019392   -0.0214940126244999    3.9769770700685370
     3.9019481827063243   -3.6185357119005759   -3.8018167033804335
     4.2137728234393368    7.9126980924471679   -4.1832522556187248
 Sr  Co  O  
   6   6  13
Selective dynamics
Direct
 -0.0156794099791008  0.0764044579024640 -0.0123530019797078   T   T   T
  0.5050039792723237  0.6394819814251247  0.8387061287777655   T   T   T
  0.0048989912191428  0.3245568961948870  0.6397485489081043   T   T   T
  0.5177050372372135 -0.0376262592784822  0.5104988832731426   T   T   T
  0.0248236804608619  0.6724297451980410  0.3290683429035899   T   T   T
  0.5019061607675595  0.3373071670550508  0.2000131049989155   T   T   T
  0.5438757240461493  0.8285117486021708  0.1647362870563431   T   T   T
  0.0272045415590365  0.5861416389206300  0.0183300712677787   T   T   T
  0.5093220469516381  0.1248895868158056  0.8213485449951721   T   T   T
  0.0040586712490085  0.7865025461565912  0.6927069604492068   T   T   T
  0.4922167496144709  0.4959641010591989  0.4960698690721459   T   T   T
 -0.0177972887452381  0.1981616337758330  0.3238857348007131   T   T   T
  0.2449845808256940  0.7935112013523744  0.0866483436861951   T   T   T
  0.7457286001216610  0.7577378916549089  0.0235665820035806   T   T   T
  0.5849954011919226  0.2842934097983133  0.9557314545154297   T   T   T
  0.0731387712213395  0.5493604612948414  0.8316721101636375   T   T   T
  0.2545407002020114  0.0059222789132910  0.7506046894178008   T   T   T
  0.7703337149465271  0.0159482451745897  0.7265906755006084   T   T   T
  0.7068026693136137  0.6261159537916018  0.6146758004407662   T   T   T
  0.2156786229375947  0.6684886754135704  0.5534133998240329   T   T   T
  0.2563954386873481  0.2604931817874736  0.4265757446456692   T   T   T
  0.4786111848076444  0.6692885712500486  0.3240007257334855   T   T   T
  0.7410482876983590  0.3116844291033726  0.4380059837147547   T   T   T
  0.7706421906560471 -0.0024184221869127  0.2572435491361964   T   T   T
  0.0595608959380520  0.3601823091366803  0.1551781032297988   T   T   T
