Sr Co O 
 1.0000000000000000
    -4.1725485626520697    0.0892031718083630   -4.1809612983546840
    -0.0443277427776709   -4.0595269505142157   -4.0523147259702208
    -7.9305662492297540   -8.1203672932460229    3.9688229842535425
 Sr  Co  O  
   5   5  10
Selective dynamics
Direct
  0.1524909747800719 -0.0770116239905794 -0.0332349613998111   T   T   T
  0.5566683264054472  0.5790334641829489  0.2504624781331683   T   T   T
  0.1739074785172662  0.2206579457154768  0.4253292958086266   T   T   T
  0.7666548197919660  0.8678753137895711  0.5757690591490681   T   T   T
  0.4481929394646320  0.3819909218661917  0.7799935663706921   T   T   T
  0.8221889356505219  0.5979172011723984  0.8799754262306992   T   T   T
  0.1289357353316944  0.3518482523783373  0.1182208694561772   T   T   T
  0.9524791300145937  0.8908346614694139  0.2851603658925492   T   T   T
  0.4187602949611119  0.5708657179406622  0.5307648106731387   T   T   T
  0.0610544146107256  0.1696947596499861  0.6840765051511977   T   T   T
  0.1139834723088837  0.5149326151902053 -0.0411529200432958   T   T   T
 -0.0063372597623318  0.5490494314974675  0.2425924644918392   T   T   T
  0.1891575633006122 -0.0110022893508468  0.1517763002405943   T   T   T
  0.2132712730354476  0.7781215538667620  0.3993885577367698   T   T   T
  0.6267525729236489  0.1290088779452803  0.3578111011654425   T   T   T
  0.7662881187280440  0.3002163000287066  0.5803143563592211   T   T   T
  0.3392999165979625  0.8619963429643419  0.6153674689297656   T   T   T
  0.1757486124832980  0.4429516425190506  0.6240835766325598   T   T   T
  0.5319985978846720  0.9062095671381660  0.8367638647007097   T   T   T
  0.8685038235255577  0.2748094896319992  0.8365378119072431   T   T   T
