Sr Co O 
 1.0000000000000000
    -3.8366903191877850    4.3130394537513181    3.7891119278921273
    -3.8702356590349987   -4.2837855172122437    3.6580824474068590
     3.8952236547353749    0.0810011253795712    7.5241527226090676
 Sr  Co  O  
   6   6  12
Selective dynamics
Direct
  0.0298125566126667 -0.0339289849724963 -0.0321693512775226   T   T   T
  0.1648274837570340  0.1336311368769309  0.3253438790894755   T   T   T
  0.3015831719931348  0.3025290435122047  0.6637112802208746   T   T   T
  0.4836355507218191  0.4674602280771238 -0.0320693369376453   T   T   T
  0.7318317480458169  0.6666042863726354  0.3242735582867315   T   T   T
  0.8646987556655132  0.8072580282601879  0.6517736014112034   T   T   T
  0.2099879841993441  0.6333828753278582  0.3373042583633409   T   T   T
  0.3366911352015904  0.7744608052560201  0.6321319854028103   T   T   T
  0.5249881729492590 -0.0434433036272491 -0.0154054335053897   T   T   T
  0.6602949624392594  0.2411955764032138  0.3342543568450889   T   T   T
  0.8089863929456313  0.3371045915492999  0.6477838520754315   T   T   T
 -0.0480500156254166  0.4780242487270397 -0.0248040024631839   T   T   T
  0.0022978705911910  0.8579153239466645  0.2681152226250783   T   T   T
  0.3760803403750643  0.7951024325963076  0.3928390193950574   T   T   T
  0.1416663606836407  0.0188731529538812  0.6469745135858490   T   T   T
  0.3184565280204247  1.1566139805118492  0.9713797310738537   T   T   T
  0.8851483476656171  0.3562147376687985  0.2049135265010970   T   T   T
  0.4089707309667505  0.3779959650528492  0.2781995832609566   T   T   T
  0.6799260507296997  0.1582047004130800  0.5596543748652824   T   T   T
  0.0228617529395293  0.4862602170674390  0.5134433917998289   T   T   T
  0.5940492051759515  0.6042425705384822  0.6548699491033956   T   T   T
  0.8401205146226332  0.3016710587165156  0.8776032000695965   T   T   T
  0.1720660237075245  0.6141766157759487  0.8391677464986127   T   T   T
  0.7390686092876869  0.7584504066855742 -0.0192888731955173   T   T   T
