Sr Co O 
 1.0000000000000000
     3.9856509373812394    0.0379049086957341    3.9390071116436878
    -0.0314693046296301   -8.3624947091680895   -0.0494914030615857
     3.7573721298199114   -0.0260291470879336   -7.6444370852143422
 Sr  Co  O  
   6   6  13
Selective dynamics
Direct
 -0.0507409861866018 -0.0102550202640142 -0.0010842469528618   T   T   T
  0.3178117750247732  0.0284080432107157  0.7006087264196001   T   T   T
  0.6190950434787168  0.0029757644921941  0.3342453123205469   T   T   T
 -0.0066749806765137  0.4580136149413401  0.0139093260290031   T   T   T
  0.3479371721503806  0.4803267246955166  0.6339901690561203   T   T   T
  0.6775151930867971  0.4719288315987611  0.3319250210043487   T   T   T
  0.5228137268491106  0.7151459965066892 -0.0271505881507914   T   T   T
  0.8235551219680193  0.7665672160554121  0.6596478875309233   T   T   T
  0.1956382029743314  0.7541927739226033  0.3941500002028047   T   T   T
  0.4901832601629886  0.2719826175803627 -0.0070447526951444   T   T   T
  0.8246040974544007  0.2242159288614717  0.6755379495206267   T   T   T
  0.1213157106621089  0.2075807314132342  0.3495629579071744   T   T   T
  0.4762638727859784  0.9251347446179513  0.0107242300756142   T   T   T
  0.7857684370151878  0.6974890661627874  0.8691180375888744   T   T   T
  0.5560337044336591  0.7129896223107715  0.4542230022313612   T   T   T
  0.7634316530373193 -0.0073723101474339  0.6705854240595255   T   T   T
  0.1398375855176018  0.7477806280198496  0.6107477790538499   T   T   T
  0.1417668749042410 -0.0355486539711693  0.3158795544232837   T   T   T
  0.1469365313712350  0.2147532470928078  0.8907739590639407   T   T   T
  0.4454136359752059  0.5100235202851745  0.0297133060518731   T   T   T
  0.6276800163365204  0.2845940537183508  0.8095683423733715   T   T   T
  0.4678704500497275  0.2579369292377504  0.4419363983017752   T   T   T
  0.0133116295576675  0.2793944060276111  0.5344850642651841   T   T   T
  0.8054456762654594  0.2278430951819604  0.1691324800607291   T   T   T
  0.0805200906925629  0.5638983303000168  0.3014814117373264   T   T   T
