Sr Co O 
 1.0000000000000000
    -3.8109880023502902    3.8618107879529830   -0.0000000000000000
     3.8109880023502902    3.8618107879529830   -0.0000000000000000
    -0.0000000000000000   -3.8618107879529830  -12.2678314563908621
 Sr  Co  O  
   6   6  12
Selective dynamics
Direct
 -0.0053519260247877 -0.0053519260247877  0.0125192029935753   T   T   T
  0.8111839043763998  0.8111839043764016  0.6467909854332329   T   T   T
  0.6685668334826502  0.6685668334826521  0.3458278315276359   T   T   T
  0.5178711290183623  0.5178711290183636  0.0125192029935753   T   T   T
  0.3356070810568304  0.3356070810568311  0.6467909854332329   T   T   T
  0.1772609980449842  0.1772609980449847  0.3458278315276359   T   T   T
  0.9245434451255456  0.4007999270041234  0.8253433721296702   T   T   T
  0.7468065587116796  0.2484676253146593  0.4952741840263394   T   T   T
  0.5589817329393058  0.1221047973864103  0.1810865303257157   T   T   T
  0.4007999270041230  0.9245434451255459  0.8253433721296702   T   T   T
  0.2484676253146593  0.7468065587116794  0.4952741840263394   T   T   T
  0.1221047973864105  0.5589817329393054  0.1810865303257157   T   T   T
  0.6856481774736863  0.1856481774736880  0.8712963549473752   T   T   T
  0.8618040857197951  0.3133094804917278  0.6751135662115232   T   T   T
  0.5009900288661070  0.0009900288661073  0.5019800577322148   T   T   T
  0.7009135633459761  0.1296690178413867  0.3305825811873635   T   T   T
  0.3246712157553761  0.8246712157553769  0.1493424315107531   T   T   T
  0.1856481774736868  0.6856481774736876  0.8712963549473752   T   T   T
  0.3133094804917280  0.8618040857197951  0.6751135662115232   T   T   T
  0.4999981999657883  0.4999981999657896  0.4999963999315783   T   T   T
  0.0009900288661074  0.5009900288661069  0.5019800577322148   T   T   T
  0.1296690178413867  0.7009135633459759  0.3305825811873635   T   T   T
  0.2981780581114568  0.2981780581114576  0.0963561162229141   T   T   T
  0.8246712157553757  0.3246712157553773  0.1493424315107530   T   T   T
