Sr Co O 
 1.0000000000000000
    -3.9648432509464855    3.9839758710282944   -0.0016514348632146
    -0.0003767692198985    3.9802638450396675    8.2669912660656841
     3.9152379941289683    7.9184872115773892    0.0209124361263732
 Sr  Co  O  
   6   6  12
Selective dynamics
Direct
  0.0443744695464380 -0.0352211890317004  0.0070726629204640   T   T   T
  0.7926228657293847  0.5599531011686288  0.8025340250819361   T   T   T
  0.6749425093046493 -0.0291514129367575  0.6775336125537730   T   T   T
  0.4830622706698541  0.5536095467997246  0.4821850487928982   T   T   T
  0.3192715733464451 -0.0353601497524636  0.3463027732711366   T   T   T
  0.1752511760707016  0.5555204759917270  0.1605590582929999   T   T   T
  0.8610347732431556  0.2812905669833811  0.2561706349014846   T   T   T
  0.6036585880511532  0.7396009678308524  0.0873333039749522   T   T   T
  0.2872075965386534  0.2844226621371640  0.8895887711970735   T   T   T
  0.2473360330958842  0.7368383056839088  0.7546210370605193   T   T   T
  0.0729353351586575  0.2688035009036960  0.5777792919129524   T   T   T
  0.9082335636654377  0.7510162111377617  0.4158629812344172   T   T   T
  0.1085837129222147  0.1716678219840183  0.1081979343654991   T   T   T
  0.6407055580860207  0.4768435298975995  0.2000744962412569   T   T   T
  0.9095571422300088  0.7872716108231218  0.9028240354090705   T   T   T
  0.4193941516921690  0.7585061400326427  0.9160876640570277   T   T   T
  0.2676764506851401  0.1738980540912771  0.7465045966984553   T   T   T
  0.3829035492378600  0.4774812722665296  0.8202974108186509   T   T   T
  0.5625111878713793  0.7920634182831727  0.5715772091785699   T   T   T
  0.0709059173167635  0.7609675646330797  0.5779489486667518   T   T   T
  0.9577457874962655  0.1659609042358083  0.4713963934406383   T   T   T
 -0.0272619854765615  0.4922504286465223  0.4980152591881830   T   T   T
  0.2472365056258465  0.7681760623568041  0.2448648931178473   T   T   T
  0.7401112317240329  0.7935905697831702  0.2346679421661224   T   T   T
