Sr Co O 
 1.0000000000000000
    -3.9908507319099700    3.9118412236931253    3.8459181200302988
    -3.9834967745200700   -3.9376405720867980    3.8795588271487218
     3.9222756477246197   -0.0372039688618568    7.6598767571617250
 Sr  Co  O  
   6   6  15
Selective dynamics
Direct
 -0.0000000000000000 -0.0000000000000000  0.0000000000000000   T   T   T
  0.1788378441711206  0.1877336745245051  0.3149564514089797   T   T   T
  0.3294945025067810  0.3519218070547028  0.6787789707005671   T   T   T
  0.5000000000000009  0.4999999999999994  0.0000000000000001   T   T   T
  0.6705054974932184  0.6480781929452952  0.3212210292994314   T   T   T
  0.8211621558288786  0.8122663254754928  0.6850435485910191   T   T   T
  0.1717284061642078  0.6619054696506044  0.3343432079041452   T   T   T
  0.3205550604992494  0.8099189940061681  0.6689539408042185   T   T   T
  0.4999999999999999 -0.0000000000000000  0.0000000000000000   T   T   T
  0.6794449395007515  0.1900810059938311  0.3310460591957824   T   T   T
  0.8282715938357917  0.3380945303493941  0.6656567920958536   T   T   T
  0.0000000000000011  0.4999999999999992 -0.0000000000000002   T   T   T
  0.0545535533487743  0.6080274856616078  0.1749120106152489   T   T   T
  0.3034377274667009  0.8425838922769096  0.1697738929515084   T   T   T
  0.2049495007130983  0.8142010494676546  0.4965337273877149   T   T   T
  0.3853037191849968  0.9686359091424799  0.7760828295043012   T   T   T
  0.6965622725332997  0.1574161077230889  0.8302261070484912   T   T   T
  0.2881507218453045  0.2565150936869227  0.0058294381891923   T   T   T
  0.6146962808150034  0.0313640908575180  0.2239171704956978   T   T   T
  0.8587291492152072  0.3148589650719356  0.1603942656817157   T   T   T
  0.4221195026876453  0.4059502642829980  0.3578209418585559   T   T   T
  0.7950504992869021  0.1857989505323439  0.5034662726122842   T   T   T
 -0.0000000000000006  0.4999999999999992  0.4999999999999989   T   T   T
  0.5778804973123541  0.5940497357169998  0.6421790581414439   T   T   T
  0.9454464466512256  0.3919725143383911  0.8250879893847511   T   T   T
  0.1412708507847927  0.6851410349280630  0.8396057343182833   T   T   T
  0.7118492781546972  0.7434849063130761 -0.0058294381891923   T   T   T
