Sr Co O 
 1.0000000000000000
     3.9326584060597578    4.0318803032206159   -0.1551570616754097
     3.9326584060597578   -4.0318803032206159    0.1551570616754097
     0.0000000000000000    0.4663654978057238  -12.0597120048412716
 Sr  Co  O  
   6   6  12
Selective dynamics
Direct
  0.0143053345248336  0.0181196172889743  0.0362683600570108   T   T   T
  0.0286315423443396 -0.0205849920016412  0.6391335788277823   T   T   T
 -0.0136019917534949  0.0199703859166038  0.3205675640418488   T   T   T
  0.4818803827110246  0.4856946654751681  0.0362683600570108   T   T   T
  0.5205849920016397  0.4713684576556618  0.6391335788277822   T   T   T
  0.4800296140833947  0.5136019917534963  0.3205675640418488   T   T   T
  0.5396853359641535 -0.0396853359641548  0.8270433692095996   T   T   T
  0.4979222307249973  0.0020777692750017  0.5195458765977660   T   T   T
  0.4953391301824747  0.0046608698175243  0.1632085047124360   T   T   T
 -0.0591531612288674  0.5591531612288692  0.8518579450078368   T   T   T
  0.0395283753435059  0.4604716246564943  0.4805335159721666   T   T   T
 -0.0202356259143192  0.5202356259143208  0.1912408358545808   T   T   T
  0.4936180733455329  0.0063819266544674 -0.0244528816837406   T   T   T
  0.4264572368722965  0.0735427631277038  0.6979116336788628   T   T   T
  0.2995137197444189  0.7117937300549221  0.5215140353771274   T   T   T
  0.2820259226705521  0.2179740773294483  0.4615904953842725   T   T   T
  0.2498983260972117  0.7635304054871336  0.1834830509060232   T   T   T
  0.2454558849679453  0.2545441150320550  0.1826614181101195   T   T   T
  0.0619717215610468  0.4380282784389536 -0.0360891647082191   T   T   T
  0.7776152058213186  0.7223847941786812  0.7577819213487140   T   T   T
  0.7882062699450793  0.2004862802555806  0.5215140353771271   T   T   T
 -0.1028406759782172  0.6028406759782193  0.3665312581566889   T   T   T
  0.7364695945128689  0.2501016739027871  0.1834830509060229   T   T   T
  0.7366924979715741  0.7633075020284257  0.1587021261690894   T   T   T
