Sr Co O 
 1.0000000000000000
    -3.6827873162336551    0.0000000000000000    0.0000000000000000
     0.0000000000000000    4.0113202246720103    3.9340478899893108
     0.0000000000000000   12.0475198632718694  -15.7489736757738452
 Sr  Co  O  
   7   7  18
Selective dynamics
Direct
 -0.0000000000000000 -0.0096680736249561 -0.0036646868619098   T   T   T
 -0.0000000000000000  0.4424799965501941  0.8612269249349297   T   T   T
 -0.0000000000000000  0.8158407067209046  0.7136903453980767   T   T   T
 -0.0000000000000000  0.2694434441792388  0.5701267030872567   T   T   T
 -0.0000000000000000  0.7089055629136658  0.4234566934517053   T   T   T
 -0.0000000000000000  0.1559414622048261  0.2897891003555484   T   T   T
 -0.0000000000000000  0.6046642952480595  0.1469882097348721   T   T   T
  0.4999999999999999  0.5080758542371833 -0.0009478855599996   T   T   T
  0.4999999999999999  0.9265235943338839  0.8581680925856403   T   T   T
  0.4999999999999999  0.3434998474078163  0.7126796049797821   T   T   T
  0.4999999999999999  0.7733998741276018  0.5724954718313637   T   T   T
  0.4999999999999999  0.2125998759015769  0.4288272332681624   T   T   T
  0.4999999999999999  0.6514721936562141  0.2865595297505714   T   T   T
  0.4999999999999999  0.0789571140608371  0.1457230889325371   T   T   T
 -0.0000000000000000  0.4655555147790663  0.0150531341908923   T   T   T
  0.4999999999999999  0.2149364351175333  0.9274102129940951   T   T   T
  0.4999999999999999  0.7163825199847849  0.9282352712864820   T   T   T
 -0.0000000000000000  0.9737738014834995  0.8399990197588678   T   T   T
  0.4999999999999999  0.6292427182955299  0.7855080086226509   T   T   T
 -0.0000000000000000  0.2965546969586586  0.7248983251894627   T   T   T
  0.4999999999999999  0.0215782338061547  0.6438529424694915   T   T   T
  0.4999999999999999  0.5563126574626984  0.6364630952388242   T   T   T
  0.4999999999999999  0.5209802693157328  0.5060230255646423   T   T   T
  0.4999999999999999 -0.0137510588195234  0.5111470222261481   T   T   T
 -0.0000000000000000  0.2167361158125498  0.4356522327604621   T   T   T
  0.4999999999999999  0.9298648446400831  0.3604798814822574   T   T   T
  0.4999999999999999  0.4260149461248423  0.3555864165146487   T   T   T
 -0.0000000000000000  0.6488972625769457  0.2831670154339549   T   T   T
  0.4999999999999999  0.3713270496546224  0.2014242597398102   T   T   T
  0.4999999999999999  0.8862927335302585  0.2149202705779454   T   T   T
 -0.0000000000000000  0.1300859836735006  0.1238315052969567   T   T   T
  0.4999999999999999  0.8127937769070233  0.0726584717300718   T   T   T
