Sr Co O 
 1.0000000000000000
     3.8578229118457372   -0.0583349862854942    4.3298166440517329
     0.2984544108983565   -7.5694028853245010   -0.2041077935675642
     3.8121847937080759   -0.3438447356317376   -8.6203265163670402
 Sr  Co  O  
   6   6  13
Selective dynamics
Direct
 -0.0502645728093144 -0.0142080991771458 -0.0132858884210753   T   T   T
  0.3342245030484353  0.0002791273004364  0.6354761236875247   T   T   T
  0.6671339362317584  0.0319493345541773  0.3332379112256146   T   T   T
  0.0005725021749948  0.4481958992461790 -0.0274608042462852   T   T   T
  0.3543626582150374  0.4963076430091312  0.6660440212762057   T   T   T
  0.6542957450636020  0.5399863463048510  0.3684717272101641   T   T   T
  0.5819085265518553  0.6976916809612345  0.0003929418503377   T   T   T
  0.8211382061406485  0.7596500196456851  0.6541658314526538   T   T   T
  0.1220113315359855  0.7374261866229735  0.3391647649214690   T   T   T
  0.5252822888302149  0.2566673887776837  0.0022594905137675   T   T   T
  0.8272488542160130  0.2412384739926926  0.6369109335442286   T   T   T
  0.1377241377584178  0.3064899721460464  0.3307567041417373   T   T   T
  0.6659210664034657  0.7507159474790213  0.8279032234304755   T   T   T
  0.4679735075500205  0.8014697422526823  0.4538751936787636   T   T   T
  0.9460222410075402 -0.0003759066139635  0.7138453146378660   T   T   T
  0.0202404595272823  0.7554535280506282  0.5119687415867238   T   T   T
  0.7696729500242296  0.8035411960858815  0.1776982266386707   T   T   T
  0.3126336758097151  0.1650711588624560  1.0799991759473264   T   T   T
  0.3908440953627765  0.5023329348322851 -0.0573992812134368   T   T   T
  0.6000739306161621  0.2120102671261307  0.8347083458503028   T   T   T
  0.4798981344736204  0.2367571508495610  0.4655543722275778   T   T   T
  0.8201017999524117  0.4895940195314046  0.6737028846146355   T   T   T
  0.0069709091482635  0.2752376889125184  0.4912286555148355   T   T   T
  0.8618265215590409  0.2173320862429476  0.1590630657406668   T   T   T
  0.1821828652065797  0.5391860259656772  0.2417184367690441   T   T   T
