Sr Co O 
 1.0000000000000000
     4.0596937401211335   -0.1138122415050774    3.9926840293981232
     3.7511635550992208   -4.5268532214733295   -3.5992390248662827
     3.6842646840363953    9.2299292778122766   -3.8218155121708621
 Sr  Co  O  
   6   6  12
Selective dynamics
Direct
 -0.0011815265844584 -0.0123448217013840  0.0570786087174874   T   T   T
  0.5232887339852965  0.7152776835496666  0.8112692643627039   T   T   T
 -0.0413084968352230  0.3944768710712189  0.6108301545356555   T   T   T
  0.4556625434345741 -0.0449113908217776  0.4778584285981938   T   T   T
 -0.0409613298873823  0.6368917092768339  0.3121350899735232   T   T   T
  0.4359173272431681  0.2651464851016869  0.2387093951205138   T   T   T
  0.4537444882008135  0.7755247314117505  0.1801466059725156   T   T   T
  0.0837752473721812  0.4943302284260348 -0.0100029556357256   T   T   T
  0.7933953655681872  0.2209406013836950  0.8451876108077380   T   T   T
 -0.0328891694297221  0.8579065380949024  0.6471546403868758   T   T   T
  0.4436317335426118  0.5151308217086453  0.4976711970529836   T   T   T
 -0.0585236530242736  0.1209694586901710  0.3647334278558781   T   T   T
  0.2045286094684498 -0.0410832162744569  0.2665658427630679   T   T   T
  0.2961037816863060  0.7086898093011972  0.0074633883654618   T   T   T
  0.8410785003431178  0.4778150295121533  0.8522493500626781   T   T   T
  0.8270401563577021 -0.0375707978008421  0.8326423027433334   T   T   T
  0.7015613821840160  0.6910391242681670  0.5848690158804782   T   T   T
  0.0341861490909419  0.0242316312595772  0.5300068466273853   T   T   T
  0.2372652727213355  0.6693502028242985  0.6398205413244421   T   T   T
  0.1481813607620524  0.3746810945154160  0.4068144646588296   T   T   T
  0.5163333004617681  0.6204317381781389  0.3137803379587973   T   T   T
  0.6429322465054860  0.2660771632572964  0.4521204200593010   T   T   T
  0.7192431368272190 -0.0422805691219152  0.2146879958520406   T   T   T
  0.0669950010372093  0.3492801279083945  0.1162080287526581   T   T   T
