Sr Co O 
 1.0000000000000000
     4.2742676343930199    0.0307946967857441    3.7483897002503044
     4.2352877171006726   -3.9085582858991392   -3.7245375845113160
     4.3070734601138652    7.8950953773324306   -3.7158577193798554
 Sr  Co  O  
   6   6  12
Selective dynamics
Direct
 -0.0138767207925620  0.0502103900191847  0.0226221362702729   T   T   T
  0.4757504467941271  0.6560253869098981  0.8261724367253809   T   T   T
  0.0017138533314457  0.3346535531723529  0.6770957616206802   T   T   T
  0.5063264666955540 -0.0746132246113181  0.4662876502495236   T   T   T
  0.0282339416248667  0.6528171337695773  0.3266773547794717   T   T   T
  0.5122517280485227  0.3249317805779884  0.1877266732858501   T   T   T
  0.4788125387770432  0.8253491331291147  0.1271385699222319   T   T   T
  0.0061275750719228  0.5252617494804863  0.0179291731072265   T   T   T
  0.4871376730242362  0.1068572856763132  0.8088201218004039   T   T   T
  0.0132581416420268  0.8474152507076785  0.6717273487386607   T   T   T
  0.4667689759768916  0.4354862812183099  0.5196835273073678   T   T   T
 -0.0076973253381302  0.2035031397351031  0.3512243403291255   T   T   T
  0.2035490010838964  0.7176950616616905  0.0435384221323779   T   T   T
  0.5446117104891643  0.0322151035916823  0.0073693457558901   T   T   T
  0.8017943824626331  0.4281735378471619  0.9131301840311769   T   T   T
  0.1663247833399840  0.0110389380185867  0.7815697255977616   T   T   T
  0.4333698648864581  0.3542093200986166  0.7168623120732045   T   T   T
  0.6876093428193113 -0.0977794945496601  0.6896189981808747   T   T   T
  0.2142990298073133  0.6754178465157851  0.5601085533585655   T   T   T
  0.3010362967015310  0.2429884502954571  0.4198589226926819   T   T   T
  0.4874718291965138  0.6684634927112560  0.2787888609714548   T   T   T
  0.7998262516075613  0.4083644524737379  0.4643287138476423   T   T   T
  0.8352228353792798 -0.0054331941297000  0.2892675761544949   T   T   T
  0.0700774469931013  0.3434151992193908  0.1657866473331039   T   T   T
