Sr Co O 
 1.0000000000000000
     4.0834003506824708   -0.1594623743403520    4.1868615370428133
     3.9393555561315527   -3.9640574493449465   -3.8929243588631719
     3.7321029022659027    7.9558011431921365   -4.1381921389453691
 Sr  Co  O  
   6   6  12
Selective dynamics
Direct
  0.0234453896667281  0.0420680201065142  0.0548748849818532   T   T   T
  0.5330068382530960  0.7467067289330955  0.7958067906890405   T   T   T
 -0.0140262547044133  0.2992029554534986  0.6969886751295437   T   T   T
  0.4588954521327059  0.0045495915306389  0.4368975649716310   T   T   T
  0.0221052475812229  0.5615983295293557  0.3494908479061144   T   T   T
  0.5154007794692241  0.3517368598899079  0.1790366051466764   T   T   T
  0.5661290115855198  0.7890839844694828  0.1534619780492182   T   T   T
  0.0675378033404173  0.5871744545538102 -0.0169547831909714   T   T   T
  0.4888739734260901  0.2152444882967562  0.8785010756001008   T   T   T
  0.0092616253751735  0.7681338982665225  0.6401598902848645   T   T   T
  0.5193100058230444  0.5400635690872784  0.4916709757336876   T   T   T
 -0.0590225515294254  0.1116280632638360  0.3838142132979500   T   T   T
  0.3151060348273842  0.7857696762209008  0.0110067668018737   T   T   T
 -0.0811351016215139  0.6285531662816377  0.8041789810829704   T   T   T
  0.2403166160415452  0.3209949546967337  0.9476880899860815   T   T   T
  0.7389575119851315  0.0877064984660635  0.8459307535261791   T   T   T
  0.7001963921027858  0.7634965199148435  0.5580404462470544   T   T   T
  0.1016894880197344  0.0085403608915905  0.5534180271604344   T   T   T
  0.2427359770119597  0.5603963946678642  0.5958434303882637   T   T   T
  0.1797066053062089  0.2178242952823387  0.2771282840584692   T   T   T
  0.4125639842075740  0.6598478720228713  0.3075319949081385   T   T   T
  0.7250451984146686  0.3159124408079241  0.4603318425188468   T   T   T
  0.7163387157282843  0.0297874230017796  0.2279115245020654   T   T   T
 -0.1724390926980897  0.6039795936701216  0.1172411942827369   T   T   T
