Sr Co O 
 1.0000000000000000
    -3.9430938124770472   -0.0304597796824161   -4.0023343279180770
    -0.0717603000329042   -8.1454199237885714    0.0091460422266153
    -3.7214841288511784    4.0285051362092270    7.8162000388009227
 Sr  Co  O  
   6   6  13
Selective dynamics
Direct
  0.0235651601303019 -0.0070542933888214 -0.0212022525415656   T   T   T
  0.6886478010577883  0.1729349637200443  0.3253577868348185   T   T   T
  0.3371430615626128  0.3556715403801703  0.6842237933815704   T   T   T
 -0.0137701022984195  0.5006551153565592  0.0223722373515286   T   T   T
  0.6395559186233902  0.6454790672411919  0.3578957271613480   T   T   T
  0.3032528110535843  0.7959882681230452  0.6396157790790059   T   T   T
  0.4711714526937877  0.7459788104729785  0.0299037353759800   T   T   T
  0.1110621091491556  0.8941410926688963  0.3005696393545965   T   T   T
  0.9035095767763924  0.0894586715246563  0.6637813957888044   T   T   T
  0.4991964166564797  0.2741115969691213  0.0179417598902580   T   T   T
  0.1606979125697410  0.4143139007597193  0.3297690235502824   T   T   T
  0.8446846976047385  0.5411233952060676  0.6631249632701208   T   T   T
  0.8124462326231240  0.8576876020948033  0.1085424403820830   T   T   T
  0.3552534967966873  0.9111193726968206  0.2035149892264793   T   T   T
  0.0431144516286428  0.0621869814945976  0.4884233388597806   T   T   T
  0.2502276164278107  0.1123947800673393  0.8280798850536458   T   T   T
  0.8069775356930253  0.3314888214107212  0.7175052076273560   T   T   T
  0.8425552437805306  0.2738431279592324  0.1276760774861439   T   T   T
  0.5249180544612170  0.5004548403851359  0.0018307918077822   T   T   T
  0.3491279222202543  0.3118151719074024  0.1825031953206013   T   T   T
  0.4865671162447086  0.4966629527361911  0.5297085486711232   T   T   T
  0.1652938525540706  0.6734696854527267  0.3313229938550896   T   T   T
 -0.0275749021869446  0.4804684212058435  0.4790681519220665   T   T   T
  0.1743063507687787  0.6835082614104827  0.8323131388600910   T   T   T
  0.7480701517063602  0.8820979430797139  0.6561576322236777   T   T   T
