Sr Co O 
 1.0000000000000000
    -3.9263606267584299    3.9174722200790790    3.8453074467926722
    -3.9263606267584299   -3.9174722200790790    3.8453074467926718
     3.8915994483059047    0.0000000000000000    7.6558858234270692
 Sr  Co  O  
   6   6  15
Selective dynamics
Direct
 -0.0218212067319155 -0.0218212067319155  0.0012956445307646   T   T   T
  0.1884878733985819  0.1884878733985822  0.3320376888025686   T   T   T
  0.3439095457199777  0.3439095457199782  0.6579237435880443   T   T   T
  0.4934949442515679  0.4934949442515688  0.0014426330005207   T   T   T
  0.6731717224150968  0.6731717224150982  0.3318907003328108   T   T   T
  0.8227571209466874  0.8227571209466890  0.6754095897452886   T   T   T
  0.1807648997715052  0.6751960450234824  0.3320159812089170   T   T   T
  0.3394678154748765  0.8271988511917895  0.6666666666666661   T   T   T
  0.4914706216431847 -0.0140982331048401  0.0013173521244146   T   T   T
  0.6751960450234819  0.1807648997715059  0.3320159812089171   T   T   T
  0.8271988511917887  0.3394678154748773  0.6666666666666661   T   T   T
 -0.0140982331048407  0.4914706216431851  0.0013173521244147   T   T   T
  0.0833333333333321  0.5833333333333340  0.1666666666666663   T   T   T
  0.2827465997092374  0.8839200669574286  0.1666666666666661   T   T   T
  0.2108184797693469  0.8156892113359679  0.5049804488766871   T   T   T
  0.5324714938178918  0.0081494219621597  0.4930809784045390   T   T   T
  0.3509774553306985  0.9558481868973184  0.8283528844566428   T   T   T
  0.6341951728487741  0.1585172447045062  0.8402523549287944   T   T   T
  0.5833333333333330  0.0833333333333332  0.1666666666666663   T   T   T
  0.8839200669574271  0.2827465997092386  0.1666666666666660   T   T   T
  0.4457034914684844  0.4457034914684853  0.3344779237451631   T   T   T
  0.8156892113359658  0.2108184797693484  0.5049804488766874   T   T   T
  0.0081494219621591  0.5324714938178928  0.4930809784045384   T   T   T
  0.5833333333333327  0.5833333333333336  0.6666666666666662   T   T   T
  0.9558481868973170  0.3509774553306986  0.8283528844566436   T   T   T
  0.1585172447045063  0.6341951728487750  0.8402523549287942   T   T   T
  0.7209631751981805  0.7209631751981820 -0.0011445904118317   T   T   T
