Sr Co O 
 1.0000000000000000
     4.0073422134722048    0.0279527482550035    3.9585559959487995
     3.9052934067038279   -3.9641020311941952   -3.8848262905126427
     3.8601564588373956    7.7541578068133177   -3.7556649813263014
 Sr  Co  O  
   6   6  13
Selective dynamics
Direct
  0.0011927361368600  0.0423975717456372 -0.0193847528734813   T   T   T
  0.4946715260320117  0.6913055306718342  0.8209749637654138   T   T   T
 -0.0009303326002117  0.3345756081821986  0.6635721499262643   T   T   T
  0.5056829956118059 -0.0203755679023031  0.5119569348386496   T   T   T
  0.0078721154726594  0.6292685918018848  0.3583398015220772   T   T   T
  0.4810369044816383  0.3350606859401239  0.1584526813266713   T   T   T
  0.5648969321322189  0.8490434912175062  0.1772928189329388   T   T   T
 -0.0111751407729530  0.4900840392100451 -0.0141767649365756   T   T   T
  0.4939240228679977  0.1700248782051496  0.8356657048978429   T   T   T
 -0.0038794730332449  0.8229720745266731  0.6837549554772862   T   T   T
  0.4965541898826714  0.4908301897691615  0.4875007191994222   T   T   T
 -0.0172401917051216  0.1763544866505509  0.3236391260392189   T   T   T
  0.4588925472135811 -0.0106878690865011  0.0272357586839335   T   T   T
  0.7166446942586748  0.3575955304345435  0.9115082492068641   T   T   T
 -0.0252114255122576  0.7143835063367429  0.8826890922120716   T   T   T
  0.2636755736233680  0.3635787493924171  0.9006978515323167   T   T   T
  0.2522001368647349  0.0262206057965548  0.7316725410259139   T   T   T
  0.7424836230391578  0.0325249700008970  0.7355857270382047   T   T   T
  0.7468276239218894  0.6656172086436388  0.5846408606010265   T   T   T
  0.2465672315132655  0.6462052362414776  0.5907062770560148   T   T   T
  0.2582525165150786  0.2698994713460371  0.4209957185482387   T   T   T
  0.4614526891278614  0.6573070579798375  0.2972503586793249   T   T   T
  0.7395188169044780  0.2927438652194861  0.4450095966842706   T   T   T
  0.8751117092310535 -0.0661070127401132  0.2372567414484709   T   T   T
  0.0009780796305335  0.3725103957188586  0.1638295885829827   T   T   T
