Sr Co O 
 1.0000000000000000
     3.9939706042171790   -0.0000000000000000    3.9939706042171750
     0.0000000000000000   -7.7348469581060995    0.0000000000000000
     4.0720975418602539    0.0000000000000000   -8.0660681460774306
 Sr  Co  O  
   6   6  12
Selective dynamics
Direct
  0.0000000000000000  0.0386295367263776  0.0000000000000000   T   T   T
  0.3231265653955454  0.0269132742294016  0.6462531307910905   T   T   T
  0.6768734346044556  0.0269132742294016  0.3537468692089100   T   T   T
  0.0000000000000000  0.4613704632736226 -0.0000000000000000   T   T   T
  0.3231265653955454  0.4730867257705989  0.6462531307910905   T   T   T
  0.6768734346044556  0.4730867257705989  0.3537468692089100   T   T   T
  0.5000000000000000  0.7500000000000008  0.0000000000000001   T   T   T
  0.8235936746810736  0.7500000000000008  0.6471873493621467   T   T   T
  0.1764063253189273  0.7500000000000008  0.3528126506378538   T   T   T
  0.5000000000000000  0.2500000000000001  0.0000000000000001   T   T   T
  0.8388787883425100  0.2500000000000001  0.6777575766850195   T   T   T
  0.1611212116574904  0.2500000000000001  0.3222424233149807   T   T   T
  0.5000000000000003  0.7500000000000008  0.5000000000000003   T   T   T
  0.8547676874371201 -0.0267116998650063  0.7095353748742389   T   T   T
  0.0000000000000002  0.7500000000000008  0.5000000000000002   T   T   T
  0.1452323125628806 -0.0267116998650063  0.2904646251257614   T   T   T
  0.3455042391454264  0.2500000000000001  0.1553818545164605   T   T   T
  0.1901223846289650  0.2500000000000001  0.8446181454835395   T   T   T
  0.6544957608545741  0.2500000000000001  0.8446181454835400   T   T   T
  0.5000000000000003  0.2500000000000001  0.5000000000000003   T   T   T
  0.8547676874371201  0.5267116998650060  0.7095353748742389   T   T   T
  0.0000000000000002  0.2500000000000001  0.5000000000000002   T   T   T
  0.8098776153710345  0.2500000000000001  0.1553818545164607   T   T   T
  0.1452323125628806  0.5267116998650060  0.2904646251257614   T   T   T
