Sr Co O 
 1.0000000000000000
    -3.9120402157094416    3.8955216748360342    3.9218080471171644
    -3.9120402157094416   -3.8955216748360342    3.9218080471171644
     3.8793591593986636    0.0000000000000000    7.8109293834015334
 Sr  Co  O  
   6   6  15
Selective dynamics
Direct
 -0.0098315230991091 -0.0082342129025192 -0.0135253610185173   T   T   T
  0.1776884127001769  0.1835008135659205  0.3401632409413806   T   T   T
  0.3298326509919455  0.3170728898444570  0.6784161414632744   T   T   T
  0.4917657870974805  0.4901684769008914 -0.0135253610185175   T   T   T
  0.6835008135659195  0.6776884127001770  0.3401632409413810   T   T   T
  0.8170728898444557  0.8298326509919453  0.6784161414632736   T   T   T
  0.1540342158961396  0.6540342158961413  0.3293474220055690   T   T   T
  0.3336898521711528  0.8336898521711544  0.6756817069301009   T   T   T
  0.5028550577291888  0.0028550577291887 -0.0013232232025931   T   T   T
  0.6682300385610860  0.1682300385610856  0.3386064795754094   T   T   T
  0.8325036725081117  0.3325036725081114  0.6632186613973521   T   T   T
  0.0012973399888586  0.5012973399888599 -0.0075948480077035   T   T   T
  0.0693533497670640  0.5693533497670655  0.1635467818807043   T   T   T
  0.9843010977711313  0.9260141328557854  0.3142436449733975   T   T   T
  0.5012935189313955  0.0012935189313952  0.5046315815693131   T   T   T
  0.0923827611953804  0.0606078558620084  0.6528980812131295   T   T   T
  0.3951051878059560  0.8951051878059570  0.8690060066025861   T   T   T
  0.6648714226256491  0.1648714226256491  0.8101611372452804   T   T   T
  0.2452815566293356  0.2182085611340530  0.0266726409262083   T   T   T
  0.6040295758204344  0.1040295758204344  0.1669630567253279   T   T   T
  0.4260141328557852  0.4843010977711327  0.3142436449733986   T   T   T
  0.7767569955663108  0.2767569955663107  0.4546975024288980   T   T   T
  0.0094880943384047  0.5094880943384054  0.5231192196758059   T   T   T
  0.5606078558620080  0.5923827611953802  0.6528980812131292   T   T   T
  0.8951746222880449  0.3951746222880446  0.8701497799699111   T   T   T
  0.1578253777178635  0.6578253777178646  0.8087185865924278   T   T   T
  0.7182085611340526  0.7452815566293367  0.0266726409262078   T   T   T
