Sr Co O 
 1.0000000000000000
     4.0839738829212271   -0.1021100153676007    3.9086478999333090
     3.8844126626998472   -4.1726532482352514   -3.6173312881249204
     3.7217094599491150    8.3344301461881720   -3.7571649823051367
 Sr  Co  O  
   6   6  12
Selective dynamics
Direct
 -0.0156801811276724 -0.0137442961942770  0.0135064942358211   T   T   T
  0.4788667566961145  0.6615903240017643  0.8000356087431932   T   T   T
 -0.0133931766789589  0.3199727322225315  0.6400479160510125   T   T   T
  0.5129407939726907  0.0209284076216695  0.4761063333311625   T   T   T
 -0.0045590029426729  0.6552723649226324  0.3612121415901329   T   T   T
  0.5347737446323172  0.3280803263857255  0.1925092395518094   T   T   T
  0.5132327877685835  0.8323532067831528  0.1517513822492410   T   T   T
  0.0989552505735304  0.4948605237601802  0.0498345324485232   T   T   T
  0.4420995432343155  0.1395170889790941  0.8450940373372683   T   T   T
  0.0018069989603560  0.8487235691167720  0.6492213436740782   T   T   T
  0.4820904727437135  0.5329036649782070  0.4853577646045956   T   T   T
 -0.0040677605998176  0.1606017197160315  0.3350119489864810   T   T   T
  0.2822563404031850  0.6910535615462720  0.0284189242559436   T   T   T
  0.5396180129385355  0.0138636466685304  0.0023037685142249   T   T   T
  0.1437228501058598  0.0299233655345681  0.7907714167204332   T   T   T
  0.5764664083862669  0.2994856937595154  0.7344066496879924   T   T   T
  0.6979206117977915  0.7423225508278306  0.6044981370770929   T   T   T
  0.0534928789891946 -0.0019335894121463  0.4918231924941842   T   T   T
  0.2123321196181276  0.6117905801796529  0.6097093995183607   T   T   T
  0.2735806810790723  0.3067182275101691  0.3831437590315014   T   T   T
  0.4480351232113209  0.6934950558938772  0.3040628643837403   T   T   T
  0.7542245329820130  0.3586051985473456  0.4233274477883281   T   T   T
  0.7762053349071039 -0.0432056866324048  0.2433329167991899   T   T   T
 -0.0349212003896646  0.3168216949217927  0.1345128483710174   T   T   T
