Sr Co O 
 1.0000000000000000
     4.0780470711505279    0.0148574316623281    4.1704406190985512
     3.8385406783395091   -3.8994184622847849   -3.9467180004157325
     3.9420451140409813    7.9615939985258697   -4.0089896263228066
 Sr  Co  O  
   6   6  12
Selective dynamics
Direct
 -0.0592399336446305 -0.0022591175516660  0.0132247928152118   T   T   T
  0.4483676440418950  0.6324146980469857  0.8756305729840544   T   T   T
  0.0555178514946070  0.3079119665658167  0.6190679674651456   T   T   T
  0.5549656423921514  0.0029462006347598  0.4915340546876057   T   T   T
  0.0174937336440222  0.7242517130469347  0.3191084871626405   T   T   T
  0.5138854609679151  0.3485314948713500  0.1843486134066589   T   T   T
  0.5174506793626920  0.8262918998366666  0.1906387713694944   T   T   T
 -0.0553647708139286  0.4899720280078876 -0.0075995299417277   T   T   T
  0.5768487246595607  0.1772983510688576  0.7921712190761765   T   T   T
 -0.0683430069984092  0.7985666085482509  0.6961408979501661   T   T   T
  0.5192103305141592  0.4763257520891955  0.4816289971383778   T   T   T
  0.0094567990514142  0.2323292378180460  0.3010055752299526   T   T   T
  0.2506273205689961  0.7924251931906382  0.0847166385771873   T   T   T
  0.7397968204667432  0.6733839396957124  0.0856066017349574   T   T   T
  0.6698909609640074  0.2988755612583486  0.9524137691086169   T   T   T
  0.0332592024082070  0.5918973805055895  0.8038326616662806   T   T   T
  0.4755564972955494  0.3711336836394917  0.6698446547596942   T   T   T
  0.6328595501625924 -0.0887453118133391  0.7569918734328637   T   T   T
 -0.0173716416359076 -0.0529118262934055  0.5438119815527261   T   T   T
  0.3014891816442710  0.2618052865706065  0.4031823104360542   T   T   T
  0.4350668629142713  0.7056253155112474  0.3752993801614563   T   T   T
  0.8309585369671105  0.4178799633791268  0.4188999830800592   T   T   T
  0.7567678860975755  0.0337296377913368  0.2504904441752936   T   T   T
  0.1108496671321090  0.3136536758780063  0.1146759616881165   T   T   T
