Sr Co O 
 1.0000000000000000
    -4.0381718994757190    4.0152591095607644    0.0169118867651884
    -0.0651683743805977    3.9799901287377097    7.5716199701072844
     4.1337679398895206    8.1326460642960381   -0.1314382752746340
 Sr  Co  O  
   6   6  12
Selective dynamics
Direct
 -0.0171363579957977 -0.0235911395947588  0.0275701836872232   T   T   T
  0.7846682554613731  0.4887829751351743  0.8606504420607606   T   T   T
  0.6128403287872585  0.0021533335959497  0.6485154199889296   T   T   T
  0.4839009088124941  0.5615631182561909  0.4808140709958528   T   T   T
  0.3580796314902027  0.0166574460021847  0.3072877993691861   T   T   T
  0.1779742484655246  0.5123070821665043  0.1731449724720232   T   T   T
  0.7351380975884576  0.2646637045906671  0.3175620631815309   T   T   T
  0.6081137231669470  0.7242156204408048  0.0813208407519191   T   T   T
  0.3845953009978189  0.2340819667988222  0.8940126363413009   T   T   T
  0.1971705723768152  0.7759224861544356  0.7701462739092503   T   T   T
  0.0740732416982628  0.3088817320231765  0.5698895214893674   T   T   T
  0.9360122334206972  0.7679920361654984  0.3947241715168819   T   T   T
  0.8918569321879892  0.0170001796727154  0.3492808431054601   T   T   T
  0.5610540228752874  0.2367605532225006  0.0191200867682630   T   T   T
  0.8016480481221411  0.4645249614901459  0.1325442006963032   T   T   T
  0.8594771416511332  0.8258835659139947  0.8714882377310780   T   T   T
  0.3952180086307933  0.7140531090083931  0.9286664822902363   T   T   T
  0.2017072640777880  0.1946384697790022  0.7901711865830864   T   T   T
  0.4225004483903694 -0.1902529451652053  0.5768040764986155   T   T   T
  0.3656617036734103  0.2605296556245362  0.3982811056446123   T   T   T
  0.7918425236265002  0.2723280717028272  0.5260755576290931   T   T   T
  0.0067742885841596  0.5524219194883792  0.5713032639855494   T   T   T
  0.2785335530469901  0.7564218696930142  0.2352787226752371   T   T   T
  0.7549624852712060  0.7620602364942908  0.2420144709042601   T   T   T
