Sr Co O 
 1.0000000000000000
    -3.8596184541151124    3.7394400847890523    4.1824593997672252
    -3.8596184541151124   -3.7394400847890523    4.1824593997672252
     3.8990979334033149   -0.0000000000000001    8.4042719102520689
 Sr  Co  O  
   6   6  12
Selective dynamics
Direct
 -0.0069716308627342 -0.0102041675848284  0.0222370895394066   T   T   T
  0.1736382975294024  0.1768708342514949  0.3110962437939271   T   T   T
  0.3214448823442723  0.3452217843223952  0.6666666666666672   T   T   T
  0.4897958324151724  0.4930283691372642  0.0222370895394048   T   T   T
  0.6768708342514960  0.6736382975293999  0.3110962437939250   T   T   T
  0.8452217843223961  0.8214448823442689  0.6666666666666650   T   T   T
  0.1524112995108257  0.6524112995108253  0.3481186997209755   T   T   T
  0.3323646037625290  0.8323646037625284  0.6496083555543228   T   T   T
  0.5228457973511816  0.0228457973511789 -0.0121314399893083   T   T   T
  0.6438208693154873  0.1438208693154844  0.3454647733226390   T   T   T
  0.8343020629041402  0.3343020629041361  0.6837249777790093   T   T   T
  0.0142553671558414  0.5142553671558421 -0.0147853663876422   T   T   T
  0.0833333333333333  0.5833333333333338  0.1666666666666666   T   T   T
  0.9455774341596757  0.9639622718504480  0.3201237197067299   T   T   T
  0.2489364855873329  0.7489364855873324  0.5094947384385383   T   T   T
  0.5059942481429265  0.0059942481429229  0.5596282829687070   T   T   T
  0.6606724185237425  0.1606724185237391  0.7737050503646233   T   T   T
  0.2210892325069930  0.2027043948162160  0.0132096136266016   T   T   T
  0.5833333333333340  0.0833333333333315  0.1666666666666652   T   T   T
  0.4639622718504505  0.4455774341596728  0.3201237197067306   T   T   T
 -0.0405000614934809  0.4594999385065203  0.4888964479171725   T   T   T
  0.9177301810793358  0.4177301810793314  0.8238385948947929   T   T   T
  0.2071667281601479  0.7071667281601477  0.8444368854161625   T   T   T
  0.7027043948162169  0.7210892325069904  0.0132096136266014   T   T   T
