Sr Co O 
 1.0000000000000000
    -4.0816347258512060    0.1282922770588398   -4.1848479308528681
     0.1250232630762392   -8.3550564479128120    0.1392770222526100
    -3.5163063979960159    4.0906208176257186    7.6855994304964446
 Sr  Co  O  
   6   6  12
Selective dynamics
Direct
  0.0248334370509028  0.0258089015613734 -0.0167540561646989   T   T   T
  0.6601463202174026  0.2084463445767121  0.3307616180031642   T   T   T
  0.3753791909958763  0.3186576949927497  0.6536782064205899   T   T   T
  0.0056613105970221  0.4852349808326610  0.0429838472367961   T   T   T
  0.6462556814943716  0.6688364149702553  0.3728186342987419   T   T   T
  0.3260802613042602  0.7968842016165891  0.6451938705599188   T   T   T
  0.4168475184402620  0.6801201790835355 -0.0226485244704569   T   T   T
  0.1002547281601033  0.9279665715957925  0.3385628699624010   T   T   T
  0.8964371209558621  0.0934425430449053  0.6548855206508952   T   T   T
  0.4951947925982422  0.2819472903754223  0.0041206927588899   T   T   T
  0.1695559745015907  0.3781911757498400  0.3373645441112070   T   T   T
  0.8678816136804871  0.5494723359340471  0.6755147546107826   T   T   T
  0.2287894259617012  0.1285776334003290  0.3280437188137044   T   T   T
 -0.1722105099329837 -0.0251299859752163  0.4064130370433697   T   T   T
  0.2608195605964457  0.1234314374390480  0.7818848714593405   T   T   T
  0.8257113126932369  0.3391105620106671  0.7209252680071642   T   T   T
  0.8164492656859141  0.2557188913445331  0.1176671693433126   T   T   T
  0.5953908949182393  0.5428129617357832  0.0422352761947389   T   T   T
  0.3261785332898436  0.3344798690827673  0.1637931107607676   T   T   T
  0.5152194112955711  0.5141191056309178  0.5440575889209941   T   T   T
  0.2137445529173884  0.7267992646891249  0.3371303902563452   T   T   T
 -0.0102612679601061  0.4952695866793513  0.4887069524427260   T   T   T
  0.1644565384997782  0.7422939506870074  0.8667952154968921   T   T   T
  0.7511841957491167  0.9075081275594611  0.6858654655707382   T   T   T
