Sr Co O 
 1.0000000000000000
    -4.1269637585269212    4.1269637585268244    0.0000000000000002
    -0.0433024448265951    4.0836613137002447   10.1230576507871195
     2.5204767071778953    6.6474404657046486    0.8566744905606202
 Sr  Co  O  
   6   6  12
Selective dynamics
Direct
 -0.0000000000000000  0.0000000000000000  0.0000000000000000   T   T   T
  0.8357603866679265  0.4277470835086674  0.9007321431554669   T   T   T
  0.7010399049656457 -0.1314366727971574  0.7293568628658647   T   T   T
  0.4999999999999992  0.4999999999999998  0.4999999999999977   T   T   T
  0.2989600950343549  0.1314366727971573  0.2706431371341344   T   T   T
  0.1642396133320699  0.5722529164913316  0.0992678568445256   T   T   T
  0.7058444324227140  0.2186353950318614  0.3696757401227112   T   T   T
  0.4788085509975681  0.8181694402025691  0.2242134578022953   T   T   T
  0.5211914490024322  0.1818305597974308  0.7757865421977054   T   T   T
  0.2941555675772857  0.7813646049681392  0.6303242598772890   T   T   T
  0.0766653686145380  0.3094670017821755  0.5372022609887486   T   T   T
  0.9233346313854639  0.6905329982178247  0.4627977390112495   T   T   T
  0.8015812926441547  0.0494626798821940  0.3473747348294955   T   T   T
  0.5000000000000001 -0.0000000000000000  0.0000000000000001   T   T   T
  0.7468596875234295  0.2619041736485763  0.7873929787727095   T   T   T
  0.2038431600552802  0.2619041736485763  0.7873929787727062   T   T   T
  0.5689483543497533  0.6590691214388132  0.7161770142503358   T   T   T
  0.0558055099610914  0.6590691214388128  0.7161770142503419   T   T   T
  0.1984187073558457 -0.0494626798821942  0.6526252651705058   T   T   T
  0.4310516456502453  0.3409308785611875  0.2838229857496598   T   T   T
  0.9441944900389077  0.3409308785611875  0.2838229857496574   T   T   T
 -0.0000000000000009  0.4999999999999998  0.4999999999999996   T   T   T
  0.2531403124765698  0.7380958263514240  0.2126070212272885   T   T   T
  0.7961568399447159  0.7380958263514233  0.2126070212272888   T   T   T
