Sr Co O 
 1.0000000000000000
     3.7369828676980328    0.0000000000000000    0.0000000000000000
     0.0000000000000000    8.4773989976382111   -0.0466857754998911
     0.0000000000000000   -0.0307333799287916   11.1786158388919272
 Sr  Co  O  
   6   6  12
Selective dynamics
Direct
  0.0000000000000000 -0.0121961918929624 -0.0026137822913983   T   T   T
  0.0000000000000000  0.0398773495987857  0.3292989269426325   T   T   T
  0.0000000000000000  0.0347836239949457  0.6799100921513413   T   T   T
  0.0000000000000000  0.5320720728025058 -0.0126108721459853   T   T   T
  0.0000000000000000  0.4788204209479031  0.3511765687126941   T   T   T
  0.0000000000000000  0.4788752225089804  0.6783921709730035   T   T   T
  0.4999999999999983  0.2726261706935444  0.1602557400766160   T   T   T
  0.4999999999999983  0.2431582128329462  0.5087092699927599   T   T   T
  0.4999999999999983  0.2498870549138420  0.8565499311369740   T   T   T
  0.4999999999999983  0.7271410452660875  0.1940084914474244   T   T   T
  0.4999999999999983  0.7672162025519291  0.5013086373099245   T   T   T
  0.4999999999999983  0.7609028301776383  0.8246615938612210   T   T   T
  0.4999999999999983  0.0571267373463266  0.1423325483321823   T   T   T
  0.4999999999999983  0.2675502094527725  0.3316120881223680   T   T   T
  0.0000000000000000  0.2584846180216456  0.5059630408756982   T   T   T
  0.4999999999999983 -0.0252261349954564  0.4928252999303439   T   T   T
  0.4999999999999983  0.2545901475641267  0.6816184887593952   T   T   T
  0.0000000000000000  0.2592453028410893  0.9189137622549208   T   T   T
  0.4999999999999983 -0.0106569865646770  0.8366260627673661   T   T   T
  0.0000000000000000  0.7650539115144191  0.2064723653404833   T   T   T
  0.4999999999999983  0.4950425301285692  0.1458258027326475   T   T   T
  0.4999999999999983  0.5601072794503325  0.5048043852691793   T   T   T
  0.0000000000000000  0.7615091397258968  0.8303429469623583   T   T   T
  0.4999999999999983  0.5340095823597062  0.8336165115940716   T   T   T
