Sr Co O 
 1.0000000000000000
    -4.2104988023625163   -0.0364043332703991   -3.8398987178169781
     0.0256267043543385   -7.5693576605313568   -0.0677160698672559
    -4.1624874362422144    3.8517765318340578    7.6465167061589385
 Sr  Co  O  
   6   6  12
Selective dynamics
Direct
  0.0597620024047741 -0.0183242145059909  0.0312484996655518   T   T   T
  0.6685619085016615  0.1551872201613634  0.3523077663809289   T   T   T
  0.3119531607995823  0.3295922546746808  0.6616889993487824   T   T   T
  0.0420447159016074  0.5260823092492695  0.0233083077801387   T   T   T
  0.6526500858520256  0.6546544779001918  0.3342673977676636   T   T   T
  0.3184029935994340  0.7964574056335785  0.6539723336926176   T   T   T
  0.5471533004419380  0.7246494293666366 -0.0038552377031801   T   T   T
  0.1699009097793422  0.8964875713513315  0.3241048240384589   T   T   T
  0.8465628491076395  0.0695943863256248  0.6940261429251768   T   T   T
  0.4557013848246468  0.2655083266765244 -0.0100599325754990   T   T   T
  0.1955190937142923  0.4109891383932610  0.3590372420413950   T   T   T
  0.8282101296056316  0.6072612142905877  0.6816859912259611   T   T   T
  0.6799300167167354  0.7870171936094208  0.8469814968833833   T   T   T
  0.8446948331958178  0.8175349289981573  0.1787734092388110   T   T   T
  0.3677437832511687  0.8295512293557064  0.1603293546645824   T   T   T
  0.1273222077545263  0.1618780971302962  0.3640857412308290   T   T   T
  0.1464316205955443  0.1291134750217796  0.8234539873462660   T   T   T
  0.6005527712871866  0.4279592444506907 -0.0688585722486180   T   T   T
  0.4061976142925340  0.2828066667956936  0.1766599029937636   T   T   T
  0.5200042821254680  0.4866878198215406  0.5415636269231462   T   T   T
  0.2029477675474121  0.6495079378356055  0.3328259521425088   T   T   T
 -0.0377396438316787  0.5245817550619324  0.5005006928945884   T   T   T
  0.1411912788226022  0.6448245412823495  0.8263435486229594   T   T   T
  0.5709675107018901  1.0070643250602276  0.5489416982832460   T   T   T
