Sr Co O 
 1.0000000000000000
     3.7734166547484103    0.0000000000000000    0.0000000000000000
     0.0000000000000000    3.8090821794460785    0.0000000000000000
     0.0000000000000000    0.0000000000000000   33.1421508355876995
 Sr  Co  O  
   8   8  20
Selective dynamics
Direct
  0.0000000000000000  0.0000000000000000 -0.0122169799700681   T   T   T
  0.0000000000000000  0.0000000000000000  0.1380657347258870   T   T   T
  0.0000000000000000  0.0000000000000000  0.2515749768278143   T   T   T
  0.0000000000000000  0.0000000000000000  0.3820647251399752   T   T   T
  0.0000000000000000  0.0000000000000000  0.4955746395478349   T   T   T
  0.0000000000000000  0.0000000000000000  0.6277561259522204   T   T   T
  0.0000000000000000  0.0000000000000000  0.7470980825991402   T   T   T
  0.0000000000000000  0.0000000000000000  0.8669801753097416   T   T   T
  0.4999999999999999  0.4999999999999999  0.0650272537111769   T   T   T
  0.4999999999999999  0.4999999999999999  0.1960652737914297   T   T   T
  0.4999999999999999  0.4999999999999999  0.3155983260335793   T   T   T
  0.4999999999999999  0.4999999999999999  0.4387856134474073   T   T   T
  0.4999999999999999  0.4999999999999999  0.5604006429787703   T   T   T
  0.4999999999999999  0.4999999999999999  0.6874353697571066   T   T   T
  0.4999999999999999  0.4999999999999999  0.8070350598466464   T   T   T
  0.4999999999999999  0.4999999999999999  0.9269966025315430   T   T   T
  0.4999999999999999  0.4999999999999999  0.0106986899506410   T   T   T
  0.0000000000000000  0.4999999999999999  0.0884518559719520   T   T   T
  0.0000000000000000  0.4999999999999999  0.1906517472519303   T   T   T
  0.4999999999999999  0.0000000000000000  0.1842228732459219   T   T   T
  0.4999999999999999  0.4999999999999999  0.2589854703000704   T   T   T
  0.0000000000000000  0.4999999999999999  0.3136646552423837   T   T   T
  0.4999999999999999  0.4999999999999999  0.3703099804741114   T   T   T
  0.0000000000000000  0.4999999999999999  0.4386008645419333   T   T   T
  0.4999999999999999  0.0000000000000000  0.4373310137711626   T   T   T
  0.4999999999999999  0.4999999999999999  0.5049740508545371   T   T   T
  0.4999999999999999  0.0000000000000000  0.5593494269105380   T   T   T
  0.4999999999999999  0.4999999999999999  0.6145054131017529   T   T   T
  0.0000000000000000  0.4999999999999999  0.6817414990233281   T   T   T
  0.4999999999999999  0.0000000000000000  0.6823589158064747   T   T   T
  0.4999999999999999  0.4999999999999999  0.7456373103068039   T   T   T
  0.0000000000000000  0.4999999999999999  0.8087140245633029   T   T   T
  0.4999999999999999  0.0000000000000000  0.8087489031575958   T   T   T
  0.4999999999999999  0.4999999999999999  0.8715149474116815   T   T   T
  0.0000000000000000  0.4999999999999999  0.9366206111474060   T   T   T
  0.4999999999999999  0.0000000000000000  0.9361761248190551   T   T   T
