Sr Co O 
 1.0000000000000000
     4.1042654497502644    0.0398262384195567    4.0803028002980000
    -0.2107540395357555   -7.9128935719425879    0.1303527913042102
     3.9283924581754324    0.2399171511346498   -7.9851416861470108
 Sr  Co  O  
   6   6  12
Selective dynamics
Direct
  0.0125436728507848  0.0007998118674351  0.0078000606092750   T   T   T
  0.3110774938934760  0.0427581654505111  0.6302304818757881   T   T   T
  0.6628802967248943  0.0249404439553623  0.3235181699038570   T   T   T
  0.0340247689567122  0.4599534271251922  0.0278970108686999   T   T   T
  0.2792585428709534  0.4851342284433268  0.6322850970823357   T   T   T
  0.6521708552049358  0.4799461255950299  0.3421478544082353   T   T   T
  0.6001172112526409  0.6730274976325525 -0.0423419290868168   T   T   T
  0.8095579972441076  0.7942026591266194  0.6509395566828864   T   T   T
  0.1843962808202125  0.7489724210131361  0.3788929778687913   T   T   T
  0.4723494229771194  0.2825000361191278  0.0014161653965981   T   T   T
  0.8388427798852810  0.2286027942727112  0.6570448549579440   T   T   T
  0.1381378391816739  0.2435597804602906  0.3168670743947267   T   T   T
  0.8247713537786877  0.7070193307436615  0.8667928483444516   T   T   T
  0.5494962258857934  0.7595308789899650  0.4481922289191066   T   T   T
  0.7578407312231181  0.0230854187448997  0.7298011301880070   T   T   T
  0.1020306352200318  0.7614548594009004  0.5929526182321061   T   T   T
  0.0890365615009530 -0.0309639364168700  0.3049515583655336   T   T   T
  0.3395203303984253  0.2170081909091255  0.1708858497282563   T   T   T
  0.1800451266464481  0.2700170590509651  0.8165030607766677   T   T   T
  0.4497361655927515  0.5512377047423271  0.0573789072719062   T   T   T
  0.5143485452148042  0.2864552208681298  0.5307610189281876   T   T   T
 -0.0336856087501946  0.2558083620336898  0.4807570905672439   T   T   T
  0.7950317475523376  0.2218689124471276  0.0934216110132904   T   T   T
  0.1031377713481092  0.5130805667906476  0.3142380791637044   T   T   T
