Sr Co O 
 1.0000000000000000
    -3.9107880218883269    3.8923771106631682   -0.0000000000000000
     3.9107880218883269    3.8923771106631682   -0.0000000000000000
     0.0000000000000000   -3.8923771106631682  -13.0577893851564593
 Sr  Co  O  
   6   6  13
Selective dynamics
Direct
  0.0399798384113010  0.0042800508180286  0.0442598892293297   T   T   T
  0.7947712151446064  0.8280010316880092  0.6227722468326145   T   T   T
  0.6632430545303182  0.6799094767994273  0.3431525313297419   T   T   T
  0.5042800508180288  0.5399798384113030  0.0442598892293297   T   T   T
  0.3280010316880068  0.2947712151446080  0.6227722468326145   T   T   T
  0.1799094767994240  0.1632430545303179  0.3431525313297417   T   T   T
  0.9923159186611327  0.4923159186611354  0.8090509046508405   T   T   T
  0.7477856611800254  0.2477856611800261  0.4805016100242482   T   T   T
  0.6022297359640628  0.1022297359640636  0.1841021030192246   T   T   T
  0.3167349859897065  0.8167349859897090  0.8090509046508405   T   T   T
  0.2327159488442240  0.7327159488442248  0.4805016100242482   T   T   T
  0.0818723670551626  0.5818723670551633  0.1841021030192246   T   T   T
  0.8221778283642870  0.3221778283642880  0.6940386020601530   T   T   T
 -0.0031783529264465 -0.0031783529264465  0.4936432941471074   T   T   T
  0.4921829808796310 -0.0078170191203697  0.4843659617592622   T   T   T
  0.6924827071849645  0.1924827071849653  0.3278338985728557   T   T   T
  0.8232635798461285  0.8232635798461314  0.1465271596922559   T   T   T
  0.3351507116513103  0.8351507116513127  0.1703014233026198   T   T   T
  0.2058238907760607  0.7058238907760631  0.9116477815521221   T   T   T
  0.3718607736958647  0.8718607736958690  0.6940386020601530   T   T   T
  0.4968216470735534  0.4968216470735552  0.4936432941471074   T   T   T
  0.0055243128097420  0.5055243128097441  0.5110486256194846   T   T   T
  0.1353511913878916  0.6353511913878923  0.3278338985728557   T   T   T
  0.3232635798461283  0.3232635798461294  0.1465271596922559   T   T   T
  0.8154358706221831  0.3154358706221841  0.1308717412443658   T   T   T
