Sr Co O 
 1.0000000000000000
    -3.7760096924649429    3.8521490105668037    4.0798155443617459
    -3.7760096924649429   -3.8521490105668037    4.0798155443617450
     3.9709637171399157    0.0000000000000000    8.3586757235533664
 Sr  Co  O  
   6   6  13
Selective dynamics
Direct
 -0.0064756700305228 -0.0140081741616871 -0.0120592442085577   T   T   T
  0.1520811456832997  0.1866762317182059  0.3354955716089404   T   T   T
  0.3340456118511009  0.3359505407393429  0.6841611449229793   T   T   T
  0.4859918258383131  0.4935243299694763 -0.0120592442085572   T   T   T
  0.6866762317182069  0.6520811456832984  0.3354955716089395   T   T   T
  0.8359505407393435  0.8340456118510989  0.6841611449229795   T   T   T
  0.1467894838753711  0.6467894838753711  0.3238648373543264   T   T   T
  0.3326645927628115  0.8326645927628104  0.6860410659681844   T   T   T
  0.4980241948881818 -0.0019758051118186 -0.0165200796712610   T   T   T
  0.6814816887693014  0.1814816887692996  0.3374058950997566   T   T   T
  0.8489880129038978  0.3489880129038961  0.6652921877948996   T   T   T
 -0.0083647578662232  0.4916352421337769  0.0058262723504182   T   T   T
  0.0646191158323220  0.5646191158323222  0.1714707337026842   T   T   T
  0.9080777456527365  0.9444104306750902  0.2883249475315717   T   T   T
  0.1384245148815236  0.0814960928445885  0.6198233076344860   T   T   T
  0.4017487183460062  0.9017487183460052  0.8486650263697119   T   T   T
  0.6691000776887347  0.1691000776887334  0.8289258611265560   T   T   T
  0.2513752124347230  0.2005832108534557  0.0492827506669599   T   T   T
  0.4444104306750916  0.4080777456527349  0.2883249475315721   T   T   T
  0.7608016142887548  0.2608016142887533  0.4862829126862459   T   T   T
  0.0437452472419557  0.5437452472419552  0.5353826743242175   T   T   T
  0.5814960928445904  0.6384245148815236  0.6198233076344872   T   T   T
  0.8917991429284060  0.3917991429284046  0.8772821605032797   T   T   T
  0.1559658375509487  0.6559658375509481  0.8200235642476588   T   T   T
  0.7005832108534572  0.7513752124347223  0.0492827506669600   T   T   T
