Sr Co O 
 1.0000000000000000
    -3.7215794306687329    0.0000000000000000    0.0000000000000000
     0.0000000000000000    4.0765637832222366    7.8409790862348778
     0.0000000000000000    8.2341967703694134   -3.9607207215954405
 Sr  Co  O  
   5   5  10
Selective dynamics
Direct
 -0.0000000000000000 -0.0026733142324271  0.0108193933856389   T   T   T
  0.0000000000000000  0.3624556334125246  0.8119340465256815   T   T   T
 -0.0000000000000000  0.8000000000000003  0.6000000000000001   T   T   T
 -0.0000000000000000  0.2375443665874762  0.3880659534743192   T   T   T
 -0.0000000000000000  0.6026733142324274  0.1891806066143613   T   T   T
  0.4999999999999998  0.3000000000000000  0.1000000000000000   T   T   T
  0.4999999999999998  0.7009523242079938  0.9060418753497307   T   T   T
  0.4999999999999998  0.0836348184527812  0.7138846843522156   T   T   T
  0.4999999999999998  0.5163651815472194  0.4861153156477849   T   T   T
  0.4999999999999998  0.8990476757920068  0.2939581246502703   T   T   T
 -0.0000000000000000  0.3000000000000000  0.1000000000000000   T   T   T
  0.4999999999999998  0.1938972542328161  0.9090878884953782   T   T   T
  0.0000000000000000  0.6177011502713187  0.9082571921063088   T   T   T
  0.4999999999999998  0.8698826925535530  0.7657140643223818   T   T   T
  0.0000000000000000  0.1204884450570270  0.6427495398052135   T   T   T
  0.0000000000000000  0.4795115549429737  0.5572504601947867   T   T   T
  0.4999999999999998  0.4061027457671843  0.2909121115046220   T   T   T
  0.4999999999999998  0.7301173074464479  0.4342859356776190   T   T   T
 -0.0000000000000000  0.9822988497286816  0.2917428078936918   T   T   T
  0.4999999999999998  0.8000000000000000  0.1000000000000003   T   T   T
