Sr Co O 
 1.0000000000000000
    -3.7347151757186534    0.0000000000000000    0.0000000000000000
     0.0000000000000000    4.1415848472715409    7.7856006103638684
     0.0000000000000000    8.5033736199853500   -4.0059035987997875
 Sr  Co  O  
   5   5  11
Selective dynamics
Direct
 -0.0000000000000000 -0.0149735650841815  0.0273808308038336   T   T   T
 -0.0000000000000000  0.4243850869738525  0.7955805747870965   T   T   T
 -0.0000000000000000  0.7978833427131866  0.5611113256782774   T   T   T
 -0.0000000000000000  0.1694385023261026  0.3719738457664226   T   T   T
 -0.0000000000000000  0.5915257052308986  0.2349531777166858   T   T   T
  0.5000000000000003  0.2972905761443201  0.1140754467851950   T   T   T
  0.5000000000000003  0.7500574814055948  0.8877189260339964   T   T   T
  0.5000000000000003  0.1045809277989111  0.6898186906351753   T   T   T
  0.5000000000000003  0.4686256910530099  0.4995977121298332   T   T   T
  0.5000000000000003  0.8769792723505967  0.2822692004290345   T   T   T
  0.5000000000000003  0.0818953154304187  0.1860421981671777   T   T   T
 -0.0000000000000000  0.3285870675860049  0.0469801252301085   T   T   T
 -0.0000000000000000  0.6969991032070919  0.8228361564045747   T   T   T
  0.5000000000000003  0.9786485702868351  0.8481996575270819   T   T   T
  0.5000000000000003  0.0131398272780735  0.5171945835122488   T   T   T
  0.5000000000000003  0.3145357373110413  0.6768814482665241   T   T   T
 -0.0000000000000000  0.5031512483652565  0.5282298705112941   T   T   T
  0.5000000000000003  0.3791927852852772  0.3086160845490352   T   T   T
  0.5000000000000003  0.6962770517681609  0.4076796609050332   T   T   T
 -0.0000000000000000  0.8906555021086490  0.2962337989742726   T   T   T
  0.5000000000000003  0.7511247101731068  0.0966268103922015   T   T   T
