Sr Co O 
 1.0000000000000000
     3.9257473856800980    4.0214835975158465    0.0124605993715908
     3.9257473856800980   -4.0214835975158465    0.0124605993715907
    -0.0377588295829658   -0.0000000000000003  -11.6471176888493240
 Sr  Co  O  
   6   6  15
Selective dynamics
Direct
  0.0004735218717088  0.0052538443126948  0.0020998053223538   T   T   T
 -0.0077517421950367 -0.0167375738518859  0.6743404323175914   T   T   T
  0.0052557784704260  0.0129167145887110  0.3156188747618709   T   T   T
  0.5052538443126944  0.5004735218717093  0.0020998053223538   T   T   T
  0.4832624261481138  0.4922482578049640  0.6743404323175909   T   T   T
  0.5129167145887101  0.5052557784704262  0.3156188747618709   T   T   T
  0.5011813131007028  0.0011813131007027  0.8160779543081143   T   T   T
  0.4721275519600840 -0.0278724480399161  0.5021030562716901   T   T   T
  0.5069971615730027  0.0069971615730026  0.1739954643764281   T   T   T
  0.0006777882244984  0.5006777882244994  0.8494957452869693   T   T   T
  0.0084619336431557  0.5084619336431565  0.4823311836878214   T   T   T
  0.0063709362583208  0.5063709362583215  0.1634096874603200   T   T   T
  0.2246914657276040  0.7246914657276052  0.8041579608394005   T   T   T
  0.2709099581284432  0.2193465989119280  0.8431281781000280   T   T   T
  0.5550097380777246  0.0550097380777246  0.6480997718795942   T   T   T
  0.2359709362045255  0.7359709362045268  0.5277159058853679   T   T   T
  0.1625106608462682  0.2374753930583152  0.5170533155365978   T   T   T
  0.5450926825118774  0.0450926825118772  0.3569554355424507   T   T   T
  0.2620408084604634  0.7620408084604646  0.1852453135295140   T   T   T
  0.2761654901972886  0.2311361879600867  0.1572874190121319   T   T   T
  0.0436582199271951  0.5436582199271962  0.0083562665608184   T   T   T
  0.7706310337187967  0.2706310337187969  0.8353618448515967   T   T   T
  0.7193465989119274  0.7709099581284444  0.8431281781000287   T   T   T
  0.7374753930583149  0.6625106608462695  0.5170533155365977   T   T   T
 -0.0278652935237041  0.4721347064762969  0.3220786836620548   T   T   T
  0.7479988293273417  0.2479988293273417  0.1388930871618599   T   T   T
  0.7311361879600858  0.7761654901972896  0.1572874190121319   T   T   T
