Sr Co O 
 1.0000000000000000
    -3.6811659415577584    0.0000000000000000    0.0000000000000000
     0.0000000000000000    4.3675723710781904    7.8725033488515557
     0.0000000000000000    8.4335797774365737   -3.7773406182182354
 Sr  Co  O  
   5   5  11
Selective dynamics
Direct
 -0.0000000000000000  0.0164542710681464  0.0293937389940178   T   T   T
 -0.0000000000000000  0.3673479548173104  0.7676509795610823   T   T   T
 -0.0000000000000000  0.7863785389805917  0.5786378860916997   T   T   T
 -0.0000000000000000  0.1827111967703947  0.4158860107918334   T   T   T
 -0.0000000000000000  0.6423050884739065  0.2191456422724870   T   T   T
  0.5000000000000003  0.3112666649088939  0.1151496802804578   T   T   T
  0.5000000000000003  0.6904850492325334  0.8994579874476170   T   T   T
  0.5000000000000003  0.0838860993545164  0.7001496849152118   T   T   T
  0.5000000000000003  0.4858133348184224  0.4721690340455619   T   T   T
  0.5000000000000003  0.9147625159546592  0.3199956753710531   T   T   T
  0.5000000000000003  0.1206534304218798  0.2223904883683238   T   T   T
  0.5000000000000003  0.2616192880154480  0.9302217734138314   T   T   T
 -0.0000000000000000  0.6412639973131854  0.8380107308243490   T   T   T
 -0.0000000000000000  0.0530774226174771  0.7583501707959999   T   T   T
  0.5000000000000003 -0.0205259156566240  0.5244444576278612   T   T   T
  0.5000000000000003  0.2882427441176363  0.5863720011609560   T   T   T
 -0.0000000000000000  0.5063789291040597  0.5133396750596122   T   T   T
  0.5000000000000003  0.4426478022213676  0.2529763808870644   T   T   T
  0.5000000000000003  0.7067343298068510  0.4058062041513522   T   T   T
 -0.0000000000000000  0.9082412541329485  0.2964461563376999   T   T   T
  0.5000000000000003  0.8102559713148558  0.0540056053439143   T   T   T
