Sr Co O 
 1.0000000000000000
    -3.8777843386325106    3.9514381922413793   -0.0099208805832740
    -0.0168796832036376    3.9123987669376166    8.2579396937302025
     3.8339415953567877    7.8571343461929377   -0.0247389135492469
 Sr  Co  O  
   6   6  12
Selective dynamics
Direct
  0.0077406011124138 -0.0502142756083016  0.0220565886542386   T   T   T
  0.8124074200372846  0.5410664880856063  0.8212354478249474   T   T   T
  0.6718877864764555 -0.0395766951922192  0.6652400602149223   T   T   T
  0.4722541116099182  0.5450343189592669  0.4905383130230275   T   T   T
  0.3364516326249397 -0.0334366281732384  0.3652968465960413   T   T   T
  0.1582284497660202  0.5235189793621992  0.1579904471982302   T   T   T
  0.7861475541875733  0.2507767159275450  0.2613290205084551   T   T   T
  0.5828912636610835  0.7293788883557356  0.0933541499698392   T   T   T
  0.4173384845267563  0.2597937724925718  0.8973457791342804   T   T   T
  0.2404006000593402  0.7431751265996677  0.7607974086438301   T   T   T
  0.0756048938644316  0.2574343041463301  0.5567552393971907   T   T   T
  0.9159401998699458  0.7410885729407016  0.4202867382574370   T   T   T
  0.7708839128240881  0.0401064666414812  0.3171717417004154   T   T   T
  0.6403216814820700  0.4632405978632081  0.1724086392729744   T   T   T
  0.8933314461515199  0.7638599009291879  0.9165454451205158   T   T   T
  0.4089540071917318  0.7557169152355554  0.9221432302412047   T   T   T
  0.3211070225262389  0.4767146890377121  0.8483124102948756   T   T   T
  0.5736749371837406  0.7485756008323446  0.5887763018536253   T   T   T
  0.0729896651526940  0.7608193671958179  0.5852653934002069   T   T   T
  0.1621523806597552  0.0492654852336058  0.6836108814010180   T   T   T
  1.0738728411080154  0.2474128973046530  0.3400907405092030   T   T   T
  0.0175632318823160  0.4716102772547497  0.5317852046086665   T   T   T
  0.2511301115394670  0.7678068831199426  0.2477206511986036   T   T   T
  0.7533923938292965  0.7368312469140671  0.2506100277133691   T   T   T
