Sr Co O 
 1.0000000000000000
    -3.9251668854219162    3.9136378063654762    0.0034795157742887
    -0.0991213444639267    3.8201184072728749    8.0269332272764746
     3.9239072496336855    7.8263267026975729   -0.1429561316650219
 Sr  Co  O  
   6   6  13
Selective dynamics
Direct
  0.0516389843602337  0.0105930071050455 -0.0187205659001328   T   T   T
  0.8383474798332509  0.4898293187301265  0.8284834467462837   T   T   T
  0.6553545049013147  0.0344100583426989  0.6450053793390982   T   T   T
  0.4763467627515895  0.4822114120271765  0.5084325921570837   T   T   T
  0.3030933839114390  0.0095638485049436  0.3551049092644887   T   T   T
  0.1509328307407261  0.4623316187988711  0.1898574754039256   T   T   T
  0.7521213514206951  0.2396398905532408  0.2596020339307372   T   T   T
  0.5849713247497192  0.7096512403802553  0.1069644308380174   T   T   T
  0.3964892541102413  0.2782839920790079  0.9020208947290650   T   T   T
  0.2830476419808305  0.7500857822795496  0.7840389250736722   T   T   T
  0.0656336039113958  0.2390409048019574  0.5977129328046297   T   T   T
  0.9341821587131576  0.7634231882666478  0.3531651066756767   T   T   T
  0.7867075740566688 -0.0142713720325018  0.3474710716996858   T   T   T
  0.1438127986924205  0.2079204063216739  0.1041422548189449   T   T   T
  0.6477345248269765  0.4703999275710312  0.1308336051409381   T   T   T
  0.5025667278919336  0.8002861575346906  0.8835765525263102   T   T   T
  0.7585487941091925  0.2272335420995921  0.8029031123069575   T   T   T
  0.2585126356377677  0.2438797046658515  0.7390984415486826   T   T   T
  0.2839686931105405  0.5316467984227059  0.8264116051577082   T   T   T
  0.1358294341463752 -0.0399002625001879  0.6662055820682602   T   T   T
  0.3756516122963381  0.2576311726131557  0.4137227520831561   T   T   T
  0.8762200949107529  0.2656322541060191  0.4418968573999598   T   T   T
 -0.1160455050067730  0.5737183611253108  0.5173936210617751   T   T   T
  0.3055080757815007  0.7518654981751590  0.3023672725943511   T   T   T
  0.8821585759473234  0.7548935479491304  0.1456430641786677   T   T   T
