Sr Co O 
 1.0000000000000000
     3.7477650705387640    0.0000000000000000    0.0000000000000000
     0.0000000000000000    3.9299254085126005    8.0576544929765745
     0.0000000000000000  -11.8096557171888037    4.0388689749094393
 Sr  Co  O  
   7   7  18
Selective dynamics
Direct
  0.0000000000000000 -0.0417248851661894  0.0016252491238297   T   T   T
  0.0000000000000000  0.4432244105580000  0.1635367639559299   T   T   T
  0.0000000000000000  0.8401573132887040  0.2820246631759485   T   T   T
  0.0000000000000000  0.3117467557599561  0.4372965786515546   T   T   T
  0.0000000000000000  0.7194701505151639  0.5772714167028044   T   T   T
  0.0000000000000000  0.1408566080764286  0.6997624563016764   T   T   T
  0.0000000000000000  0.5811097978175686  0.8497680379629557   T   T   T
  0.4999999999999997  0.2821077082766474  0.9196271118831312   T   T   T
  0.4999999999999997  0.6947684783400219  0.0739138928866676   T   T   T
  0.4999999999999997  0.1457626484482736  0.1994776003092802   T   T   T
  0.4999999999999997  0.5827221418956690  0.3652110637881692   T   T   T
  0.4999999999999997  0.0061330821214946  0.4991080859758060   T   T   T
  0.4999999999999997  0.4352171071590507  0.6430700991230898   T   T   T
  0.4999999999999997  0.8577067474834206  0.7885382540726042   T   T   T
  0.4999999999999997  0.0842299742293924  0.8977097429546865   T   T   T
  0.4999999999999997  0.4423939436960916  0.0167138989735495   T   T   T
  0.0000000000000000  0.6960857983678849  0.0734532268787769   T   T   T
  0.4999999999999997  0.6389596512005756  0.2201065038141542   T   T   T
  0.4999999999999997  0.9438895885166098  0.1601924160590067   T   T   T
  0.0000000000000000  0.1619189053871948  0.1629976754733281   T   T   T
  0.4999999999999997  0.3225000442902793  0.2877379490670331   T   T   T
  0.0000000000000000  0.5767767547061217  0.3613324316262933   T   T   T
  0.4999999999999997  0.5141631481010056  0.5022549360831290   T   T   T
  0.4999999999999997  0.8146741144214155  0.4295122886261877   T   T   T
  0.0000000000000000  0.0309722866754206  0.4526531134116945   T   T   T
  0.4999999999999997  0.9451694071006882  0.6446005900392371   T   T   T
  0.4999999999999997  0.2070044264426286  0.5574230851699814   T   T   T
  0.0000000000000000  0.4250682445434283  0.6462225305400420   T   T   T
  0.4999999999999997  0.3448158469035729  0.7897029276812687   T   T   T
  0.4999999999999997  0.6469286512175351  0.7161295038761161   T   T   T
  0.0000000000000000  0.8700748568525767  0.7908969110724944   T   T   T
  0.4999999999999997  0.7636876388023651  0.9329861153558754   T   T   T
