Sr Co O 
 1.0000000000000000
     3.9120786077058640    0.0526444030650836    4.0562287610900789
    -0.1448710283236395   -7.8100100105367627    0.0422138812682623
     3.9389787343819762    0.1138476489723892   -8.1405250133508389
 Sr  Co  O  
   6   6  13
Selective dynamics
Direct
 -0.0513382447653048  0.0046957844663180 -0.0298356808351525   T   T   T
  0.3458733055005833  0.0173258630443406  0.6555866924308176   T   T   T
  0.6647075942915782 -0.0036572529375089  0.3492844090197635   T   T   T
 -0.0164238089430300  0.4912690210119473 -0.0144981591237688   T   T   T
  0.3598897187524949  0.5056672889523885  0.6707424953151638   T   T   T
  0.6743846565498151  0.4676402527820652  0.3517557346360317   T   T   T
  0.4683787074900564  0.7373962363983277  0.0262390442944931   T   T   T
  0.8349534189028339  0.7519064513710885  0.6205423971104935   T   T   T
  0.1856389897057513  0.7175865955354387  0.3248989651746703   T   T   T
  0.5293177062987072  0.2700939599142073 -0.0007609195275620   T   T   T
  0.8653836000318660  0.2488563111886956  0.6796365695721522   T   T   T
  0.1363807406598629  0.2604860560462359  0.3379562650252734   T   T   T
  0.2773736714186874  0.8210116267124347  0.1463358387749928   T   T   T
  0.5643470833472096  0.8038712915742982  0.8648973489157443   T   T   T
  0.4783317311228836  0.7566457258559300  0.5144255974142602   T   T   T
  0.9046574332204285 -0.0251284062993537  0.6827572123981184   T   T   T
 -0.0604511957743270  0.7480450741227331  0.4289040135796258   T   T   T
  0.1825339215146487  0.2400820208754398  0.8957975221481904   T   T   T
  0.5833855532101034  0.5133639376522395  0.0653839891913442   T   T   T
  0.6489553707640082  0.2592905986264404  0.8152710597576097   T   T   T
  0.4782691079609871  0.2146334876479550  0.4620488332497630   T   T   T
  0.9085144456282821  0.5381642440199358  0.6961845103826709   T   T   T
  0.0224355299235619  0.2575030654013870  0.5176375552442984   T   T   T
  0.8169487640114619  0.1743474317761005  0.1706034950871268   T   T   T
  0.1975524457189752  0.4789033515543943  0.2682053626069016   T   T   T
