Sr Co O 
 1.0000000000000000
     3.7212453753878676    0.0000000000000000    0.0000000000000000
     0.0000000000000000    8.2485935639424550   -0.0748431130176839
     0.0000000000000000   -0.1106356048021025   12.0498078853623038
 Sr  Co  O  
   6   6  13
Selective dynamics
Direct
  0.0000000000000000 -0.0187325948405720  0.0201455193833038   T   T   T
  0.0000000000000000 -0.0417970907773712  0.3320527257930314   T   T   T
  0.0000000000000000 -0.0076292866381570  0.6400763508186553   T   T   T
  0.0000000000000000  0.5094015824899227 -0.0205590367629894   T   T   T
  0.0000000000000000  0.5083076345791717  0.3699238746543744   T   T   T
  0.0000000000000000  0.5357344786068696  0.6562294808462862   T   T   T
  0.4999999999999996  0.2646401664138772  0.1836639375297685   T   T   T
  0.4999999999999996  0.2519827560462103  0.4980142668512162   T   T   T
  0.4999999999999996  0.2556325389197738  0.8375820832242716   T   T   T
  0.4999999999999996  0.6823318682074432  0.1733870364822371   T   T   T
  0.4999999999999996  0.7597256828087368  0.5000011048075207   T   T   T
  0.4999999999999996  0.7384658794012798  0.8217859393791723   T   T   T
  0.4999999999999996  0.0514431416681814  0.1393594903747871   T   T   T
  0.4999999999999996  0.2937668701295281  0.3354668172984559   T   T   T
  0.0000000000000000  0.2651076847870549  0.5557997175386911   T   T   T
  0.4999999999999996  0.0052127199636758  0.4831523849673813   T   T   T
  0.0000000000000000  0.1883858650984488  0.8574721505111187   T   T   T
  0.0000000000000000  0.7346708189584431  0.1345270275504050   T   T   T
  0.4999999999999996  0.4556404256934086  0.1053934066373868   T   T   T
  0.4999999999999996  0.7361621276368017  0.3310279300860653   T   T   T
  0.0000000000000000  0.7603737564774807  0.4991679619853356   T   T   T
  0.4999999999999996  0.5216577593037515  0.5180278765162000   T   T   T
  0.4999999999999996  0.7956548957289836  0.6683768634439914   T   T   T
  0.0000000000000000  0.7705252424730905  0.8729340873172052   T   T   T
  0.4999999999999996  0.4833351315314045  0.8203243889109932   T   T   T
