Sr Co O 
 1.0000000000000000
    -3.8598632203551744    4.0898829385172988    0.1156636378358876
     3.8598632203551744    4.0898829385172988   -0.1156636378358877
     0.3444005074061680   -4.0898829385172988  -11.5885224198396557
 Sr  Co  O  
   6   6  13
Selective dynamics
Direct
 -0.0259773002778078  0.0346525817349823  0.0206757475911767   T   T   T
  0.8543818342243581  0.7997829711724341  0.6626726386582852   T   T   T
  0.6621426932849127  0.6635287875261158  0.3211982489417952   T   T   T
  0.4860231658561954  0.5466530478689879  0.0206757475911767   T   T   T
  0.3628896674858588  0.3082908044339325  0.6626726386582852   T   T   T
  0.1576694614156844  0.1590555556568851  0.3211982489417952   T   T   T
  0.9479735798246379  0.4011448088316529  0.8491183886562857   T   T   T
  0.7552043661749666  0.2434072763630815  0.4986116425380455   T   T   T
  0.5554182963617386  0.1018724202626159  0.1572907166243545   T   T   T
  0.4059717768195376  0.9144450776611135  0.8204168544806397   T   T   T
  0.2846470765176909  0.7164387756813924  0.5010858521990756   T   T   T
  0.0659442531072328  0.6073851134992603  0.1733293666064872   T   T   T
 -0.0535869656355121  0.5526253500973711 -0.0009616155381469   T   T   T
  0.7438393077644111  0.1293725490664731  0.8074134127735891   T   T   T
  0.5934469249793308 -0.0284947477416123  0.4921200070022685   T   T   T
  0.8040723004173405  0.8692086106494123  0.1732809110667459   T   T   T
  0.3362758827651631  0.8708111194682695  0.1719456756660869   T   T   T
  0.4350141428952961  0.0368545630000762 -0.0281312941046277   T   T   T
  0.1780408637071197  0.5635741050091821  0.8074134127735882   T   T   T
  0.2734801291624068  0.8860889456224637  0.6595690747848605   T   T   T
  0.5547151782608144  0.4929496523164468  0.5476648305772561   T   T   T
  0.0206147547438832  0.3986730820229396  0.4921200070022683   T   T   T
  0.1348604501618064  0.7096739719502271  0.3445344221120247   T   T   T
  0.3324703039763151  0.3530024099221264  0.1854727138984388   T   T   T
  0.8011345561978229  0.3356697929009315  0.1719456756660870   T   T   T
