Sr Co O 
 1.0000000000000000
     3.7665838149072099    0.0000000000000000    0.0000000000000000
     0.0000000000000000    3.7587830524995565    0.0000000000000000
     0.0000000000000000    0.0000000000000000   33.8214720910851980
 Sr  Co  O  
   8   8  20
Selective dynamics
Direct
  0.0000000000000000  0.0000000000000000 -0.0143492028843886   T   T   T
  0.0000000000000000  0.0000000000000000  0.1323457932959732   T   T   T
  0.0000000000000000  0.0000000000000000  0.2562318127109478   T   T   T
  0.0000000000000000  0.0000000000000000  0.3855769199849136   T   T   T
  0.0000000000000000  0.0000000000000000  0.5062257106968814   T   T   T
  0.0000000000000000  0.0000000000000000  0.6255751562637918   T   T   T
  0.0000000000000000  0.0000000000000000  0.7455885378700792   T   T   T
  0.0000000000000000  0.0000000000000000  0.8647521536489907   T   T   T
  0.5000000000000000  0.4999999999999997  0.0641133594275540   T   T   T
  0.5000000000000000  0.4999999999999997  0.1942206485440653   T   T   T
  0.5000000000000000  0.4999999999999997  0.3128989464003245   T   T   T
  0.5000000000000000  0.4999999999999997  0.4467716565506317   T   T   T
  0.5000000000000000  0.4999999999999997  0.5665174547776943   T   T   T
  0.5000000000000000  0.4999999999999997  0.6855365815786146   T   T   T
  0.5000000000000000  0.4999999999999997  0.8046466712437609   T   T   T
  0.5000000000000000  0.4999999999999997  0.9251573220832593   T   T   T
  0.5000000000000000  0.4999999999999997  0.0115979683537140   T   T   T
  0.5000000000000000  0.0000000000000000  0.0893657560791938   T   T   T
  0.0000000000000000  0.4999999999999997  0.1798187266261688   T   T   T
  0.5000000000000000  0.4999999999999997  0.2520919801727331   T   T   T
  0.5000000000000000  0.0000000000000000  0.3076630357107470   T   T   T
  0.5000000000000000  0.4999999999999997  0.3652194673283209   T   T   T
  0.0000000000000000  0.4999999999999997  0.4366925769095490   T   T   T
  0.5000000000000000  0.0000000000000000  0.4366514193111390   T   T   T
  0.5000000000000000  0.4999999999999997  0.5007217326053143   T   T   T
  0.0000000000000000  0.4999999999999997  0.5623338062363289   T   T   T
  0.5000000000000000  0.0000000000000000  0.5623444618464563   T   T   T
  0.5000000000000000  0.4999999999999997  0.6240448606805684   T   T   T
  0.0000000000000000  0.4999999999999997  0.6858254919592043   T   T   T
  0.5000000000000000  0.0000000000000000  0.6858191709670891   T   T   T
  0.5000000000000000  0.4999999999999997  0.7476336014985956   T   T   T
  0.0000000000000000  0.4999999999999997  0.8094964270879795   T   T   T
  0.5000000000000000  0.0000000000000000  0.8095015602113518   T   T   T
  0.5000000000000000  0.4999999999999997  0.8714033213396221   T   T   T
  0.0000000000000000  0.4999999999999997  0.9361843248887259   T   T   T
  0.5000000000000000  0.0000000000000000  0.9362807855295198   T   T   T
