Sr Co O 
 1.0000000000000000
     4.1080971920670697   -0.0502312541223239    4.1815660352414286
     0.1571207240357359   -7.3905049689360922   -0.0596827277553883
     3.9769890387647919   -0.1407356951272603   -8.2291463947121475
 Sr  Co  O  
   6   6  12
Selective dynamics
Direct
  0.0419721107174436  0.0110126367930802  0.0361544526680576   T   T   T
  0.2626845840959220  0.0288315332312004  0.6628379475018832   T   T   T
  0.7279493351416780  0.0006171881013528  0.3145226670131340   T   T   T
  0.0227706902994211  0.5050648514108641  0.0338684083665718   T   T   T
  0.2414624574485737  0.4866711269760401  0.6486649612472628   T   T   T
  0.7072019915579120  0.4808988380716174  0.3073333423299667   T   T   T
  0.5158459173062968  0.7493450835918875 -0.0114634255859219   T   T   T
  0.7154668724620304  0.7848667443720460  0.6724805106159037   T   T   T
  0.2918942424466969  0.7442783448956483  0.3391658063460314   T   T   T
  0.4894943129161978  0.2652718044562808 -0.0142321001129264   T   T   T
  0.8286460923704656  0.2206495224842000  0.7107527779494581   T   T   T
  0.1980421097734254  0.2438858919143516  0.3186477863855537   T   T   T
  0.3340633776460377  0.7390610193811156  0.1221636580516519   T   T   T
  0.4833545157652745  0.7382160389824378  0.7772623470075359   T   T   T
  0.6554579773989112  0.7268083088771028  0.4684639878859078   T   T   T
  0.9442450037882048 -0.0488877257183297  0.7647041277036845   T   T   T
  0.8248610365470180  0.7661596664650915  0.1307337736688455   T   T   T
  0.1952081250173011 -0.0105569101589409  0.3813288816048891   T   T   T
  0.3893524225894123  0.2394967450488041  0.1733935093905719   T   T   T
  0.1525700304686842  0.3148724726145952  0.8590164512015473   T   T   T
  0.5658142038227423  0.2611990235546099  0.7895386482189543   T   T   T
 -0.0984467930665253  0.2512278285149290  0.5198309942357424   T   T   T
  0.8247685501285951  0.2545425244451618  0.1286279102689266   T   T   T
  0.1853208353596940  0.4964673744939244  0.3662022414579870   T   T   T
