Sr Co O 
 1.0000000000000000
    -3.8623654441790873   -0.0406290871763020   -3.8922989426102794
    -0.0574373397679536   -8.0427088124236068   -0.0234291548576718
    -3.7677884375621464    4.0163712955617878    7.7304500906518623
 Sr  Co  O  
   6   6  15
Selective dynamics
Direct
  0.0182793559949073  0.0080232055571329  0.0057497696263901   T   T   T
  0.6880804934102716  0.1975897336088582  0.3569762379467973   T   T   T
  0.3246127484724071  0.3456049573364788  0.6693295105931714   T   T   T
 -0.0139016648234164  0.4653013826796223 -0.0101146882706535   T   T   T
  0.6626196546747438  0.6473248083936546  0.3271882899003600   T   T   T
  0.3090310366154266  0.8239264964401031  0.6485777138102241   T   T   T
  0.4697645960786417  0.7314596631265474 -0.0029405380075931   T   T   T
  0.1730384204245666  0.9182081431604551  0.3297400298004713   T   T   T
  0.8454812602227816  0.0816770528764157  0.6708826724010034   T   T   T
  0.4997916511374059  0.2521977288803339 -0.0044474263349326   T   T   T
  0.1710709873793642  0.4103581534089947  0.3319477920515504   T   T   T
  0.8300855159861511  0.6030179347801499  0.6735511840681809   T   T   T
  0.7076084926997698  0.7224909370582598  0.8979488134877148   T   T   T
  0.3948119278939498  0.8793182012274756  0.1848899570428649   T   T   T
  0.1747153614762233  0.1496304423672817  0.3492348105915696   T   T   T
 -0.0192129895611484 -0.0295335229139933  0.4732057253085841   T   T   T
  0.1809576850312700  0.1373525319706904  0.8525347574396194   T   T   T
  0.8509313978977934  0.3138816553720396  0.6704747939167564   T   T   T
  0.6209787112627762  0.1550378226928794  0.8053834690582168   T   T   T
  0.8253129599740119  0.2955028327822129  0.1425028827882763   T   T   T
  0.4866320162552661  0.5035140566419594  0.0050066511006227   T   T   T
  0.3542178658182900  0.3204418339464358  0.1812487091179748   T   T   T
  0.5030939427365811  0.5069330375813802  0.5281037438875572   T   T   T
  0.1732235284530248  0.6824632551016357  0.3021160646338588   T   T   T
 -0.0078083719438466  0.5034068538843276  0.4820022276633255   T   T   T
  0.1636719071056103  0.6982858689812287  0.8222680212530438   T   T   T
  0.7795782856041681  0.8432515644315547  0.6399722109134743   T   T   T
