Sr Co O 
 1.0000000000000000
     3.9085919621569807   -0.0000000000000000    3.9085919621569811
     0.0000000000000000   -8.0198542973638798    0.0000000000000000
     3.9457934525701628    0.0000000000000000   -7.8543854147271421
 Sr  Co  O  
   6   6  14
Selective dynamics
Direct
  0.0000000000000000  0.0374941172821419 -0.0000000000000000   T   T   T
  0.3315808504936731  0.0258154892963926  0.6631617009873476   T   T   T
  0.6684191495063260  0.0258154892963926  0.3368382990126538   T   T   T
  0.0000000000000000  0.4625058827178579 -0.0000000000000000   T   T   T
  0.3315808504936731  0.4741845107036074  0.6631617009873476   T   T   T
  0.6684191495063260  0.4741845107036074  0.3368382990126538   T   T   T
  0.4999999999999997  0.7499999999999999  0.0000000000000006   T   T   T
  0.8238092340022474  0.7499999999999999  0.6476184680044973   T   T   T
  0.1761907659977517  0.7499999999999999  0.3523815319955040   T   T   T
  0.4999999999999997  0.2499999999999999  0.0000000000000006   T   T   T
  0.8354797092696485  0.2499999999999999  0.6709594185393009   T   T   T
  0.1645202907303496  0.2499999999999999  0.3290405814606998   T   T   T
  0.4999999999999997 -0.0339924730386097  0.0000000000000006   T   T   T
  0.4999999999999995  0.7499999999999999  0.5000000000000007   T   T   T
  0.8533048538437772 -0.0341861541476699  0.7066097076875584   T   T   T
  0.0000000000000002  0.7499999999999999  0.5000000000000001   T   T   T
  0.1466951461562211 -0.0341861541476699  0.2933902923124427   T   T   T
  0.3380068385497866  0.2499999999999999  0.1659668676533331   T   T   T
  0.1720399708964538  0.2499999999999999  0.8340331323466678   T   T   T
  0.4999999999999997  0.5339924730386099  0.0000000000000006   T   T   T
  0.6619931614502123  0.2499999999999999  0.8340331323466681   T   T   T
  0.4999999999999994  0.2499999999999999  0.5000000000000007   T   T   T
  0.8533048538437772  0.5341861541476700  0.7066097076875584   T   T   T
  0.0000000000000002  0.2499999999999999  0.5000000000000001   T   T   T
  0.8279600291035452  0.2499999999999999  0.1659668676533336   T   T   T
  0.1466951461562211  0.5341861541476700  0.2933902923124427   T   T   T
