Sr Co O 
 1.0000000000000000
     3.7199189183698325    0.0000000000000000    0.0000000000000000
     0.0000000000000000    8.1393672838055053    0.0729746329596096
     0.0000000000000000    0.1090043988767397   12.2335972846810552
 Sr  Co  O  
   6   6  12
Selective dynamics
Direct
  0.0000000000000000  0.0023999925931621  0.0037760725065633   T   T   T
  0.0000000000000000 -0.0141416907922633  0.3474262928941473   T   T   T
  0.0000000000000000 -0.0381930141470251  0.6391516723612772   T   T   T
  0.0000000000000000  0.5072378714493644 -0.0011952610567416   T   T   T
  0.0000000000000000  0.5059443711325953  0.3592762447569193   T   T   T
  0.0000000000000000  0.5119692670931030  0.6485771222500326   T   T   T
  0.4999999999999999  0.2892324476937654  0.1737429538014961   T   T   T
  0.4999999999999999  0.2412490228475203  0.4960380725662629   T   T   T
  0.4999999999999999  0.2476769312203089  0.8330916649907966   T   T   T
  0.4999999999999999  0.7420488135373922  0.1814546386312084   T   T   T
  0.4999999999999999  0.7427420850261609  0.4978759759546468   T   T   T
  0.4999999999999999  0.7203161445872969  0.8236668823289371   T   T   T
  0.0000000000000000  0.2391945827956103  0.1126175047327241   T   T   T
  0.4999999999999999  0.2394007730592504  0.3277473095109295   T   T   T
  0.0000000000000000  0.2426498816771854  0.5523338662406417   T   T   T
  0.4999999999999999 -0.0139964739086619  0.4972395064162765   T   T   T
  0.0000000000000000  0.8275997036569110  0.1538981462928445   T   T   T
  0.4999999999999999  0.5233906453928286  0.1258242377228053   T   T   T
  0.4999999999999999  0.7434968040246136  0.3387671461491484   T   T   T
  0.0000000000000000  0.7398995886531400  0.5008244920601170   T   T   T
  0.4999999999999999  0.4984755056299087  0.5048863300363717   T   T   T
  0.4999999999999999  0.7498747043242495  0.6672578369186303   T   T   T
  0.0000000000000000  0.7784718727962977  0.8720846613520689   T   T   T
  0.4999999999999999  0.4730601458589875  0.8436366950544250   T   T   T
