Sr Co O 
 1.0000000000000000
     3.6311957706864058    0.0000000000000000    0.0000000000000000
     0.0000000000000000    8.2328244576517502    0.0321274224195362
     0.0000000000000000    0.0487703672891523   12.1045296858009976
 Sr  Co  O  
   6   6  12
Selective dynamics
Direct
  0.0000000000000000 -0.0302777631815198  0.0009484872460401   T   T   T
  0.0000000000000000  0.0125642433452641  0.3333962407678535   T   T   T
  0.0000000000000000 -0.0088961205975129  0.6560824452479295   T   T   T
  0.0000000000000000  0.5199481326466513 -0.0268864413832850   T   T   T
  0.0000000000000000  0.4952184570063350  0.3623666479226603   T   T   T
  0.0000000000000000  0.5060305109201265  0.6576929740987817   T   T   T
  0.4999999999999998  0.2423338675654408  0.1652201058030428   T   T   T
  0.4999999999999998  0.2395377948822016  0.4918945025928250   T   T   T
  0.4999999999999998  0.2508765137730520  0.8543503859654631   T   T   T
  0.4999999999999998  0.7643717375609818  0.1816069619921419   T   T   T
  0.4999999999999998  0.7572756671083509  0.4921431133381171   T   T   T
  0.4999999999999998  0.7319174007385221  0.8080326746108083   T   T   T
  0.4999999999999998  0.3046705350700982  0.0218972138941384   T   T   T
  0.4999999999999998  0.0045854052384972  0.1636954036811664   T   T   T
  0.4999999999999998  0.2801227246105337  0.3154843199680885   T   T   T
  0.0000000000000000  0.2540322558714462  0.5445634082495971   T   T   T
  0.4999999999999998 -0.0126057727259543  0.4752363542917474   T   T   T
  0.0000000000000000  0.1614019534452669  0.8307584311733764   T   T   T
  0.4999999999999998  0.7208317682457152  0.0363758278073825   T   T   T
  0.4999999999999998  0.7246470454928169  0.3292252256549492   T   T   T
  0.4999999999999998  0.5284968342294465  0.5073891740930776   T   T   T
  0.4999999999999998  0.7833943255110156  0.6472585195303128   T   T   T
  0.0000000000000000  0.7860581336644247  0.8425081778398190   T   T   T
  0.4999999999999998  0.4834642936697401  0.8087598628293131   T   T   T
