Sr Co O 
 1.0000000000000000
    -3.8640791990075769    0.0000000000000000    0.0000000000000000
     0.0000000000000000    3.8969544795090454    3.9005609606578537
     0.0000000000000000   11.4912235334882080  -15.4027687012821293
 Sr  Co  O  
   7   7  18
Selective dynamics
Direct
  0.0000000000000000 -0.0308733907463161 -0.0055937226349564   T   T   T
  0.0000000000000000  0.4022059525034025  0.8615979773890869   T   T   T
 -0.0000000000000000  0.8835083332108834  0.7098305940394842   T   T   T
  0.0000000000000000  0.3165876764606026  0.5770222940635278   T   T   T
 -0.0000000000000000  0.6954085279514456  0.4253721554916293   T   T   T
 -0.0000000000000000  0.1428571428571435  0.2857142857142856   T   T   T
  0.0000000000000000  0.5903057577628398  0.1460564159369421   T   T   T
  0.5000000000000002  0.5030428502586216 -0.0018347109632779   T   T   T
  0.5000000000000002  0.9314137685165456  0.8572234045337070   T   T   T
  0.5000000000000002  0.3543005171977410  0.7142051668948640   T   T   T
  0.5000000000000002  0.7826714354556634  0.5732632823918490   T   T   T
  0.5000000000000002  0.2232307285561669  0.4278533725540194   T   T   T
  0.5000000000000002  0.6428571428571423  0.2857142857142856   T   T   T
  0.5000000000000002  0.0624835571581197  0.1435751988745517   T   T   T
 -0.0000000000000000  0.4727470485643363  0.0095638414361055   T   T   T
  0.5000000000000002  0.1950170405868115  0.9419878593188216   T   T   T
  0.5000000000000002  0.6796259552624950  0.9129144870122876   T   T   T
 -0.0000000000000000  0.8909335074588098  0.8452264481798206   T   T   T
  0.5000000000000002  0.1428571428571436  0.7857142857142854   T   T   T
 -0.0000000000000000  0.3947807782554766  0.7262021232487503   T   T   T
  0.5000000000000002  0.0906972451274738  0.6294407121097495   T   T   T
  0.5000000000000002  0.6060883304517928  0.6585140844162841   T   T   T
  0.0000000000000000  0.8129672371499501  0.5618647299924662   T   T   T
  0.5000000000000002  0.4983513217871960  0.5026330261790274   T   T   T
 -0.0000000000000000  0.1940088395861458  0.4433830926210912   T   T   T
  0.5000000000000002  0.9211015500810841  0.3755165033596005   T   T   T
  0.5000000000000002  0.4085372529518069  0.3511674413807207   T   T   T
 -0.0000000000000000  0.6428571428571423  0.2857142857142856   T   T   T
  0.5000000000000002  0.3646127356332002  0.1959120680689708   T   T   T
  0.5000000000000002  0.8771770327624784  0.2202611300478507   T   T   T
 -0.0000000000000000  0.0917054461281404  0.1280454788074802   T   T   T
  0.5000000000000002  0.7873629639270899  0.0687955452495440   T   T   T
