Sr Co O 
 1.0000000000000000
     3.7429984191574448    0.0000000000000000    0.0000000000000000
     0.0000000000000000    7.8922639770817895    0.0000000000000000
     0.0000000000000000    0.0000000000000000   12.1032031721415212
 Sr  Co  O  
   6   6  12
Selective dynamics
Direct
 -0.0000000000000000 -0.0156806938700683 -0.0195830017606785   T   T   T
  0.0000000000000000 -0.0212319873200960  0.3369784878298683   T   T   T
 -0.0000000000000000 -0.0202730732405087  0.6810198034774684   T   T   T
 -0.0000000000000000  0.5156806938700685 -0.0195830017606785   T   T   T
 -0.0000000000000000  0.5212319873200963  0.3369784878298683   T   T   T
  0.0000000000000000  0.5202730732405092  0.6810198034774684   T   T   T
  0.4999999999999999  0.2499999999999998  0.1655435496297227   T   T   T
  0.4999999999999999  0.2499999999999998  0.4958891027934276   T   T   T
  0.4999999999999999  0.2499999999999998  0.8337173247082429   T   T   T
  0.4999999999999999  0.7500000000000004  0.1699621137079957   T   T   T
  0.4999999999999999  0.7500000000000004  0.4957858236621575   T   T   T
  0.4999999999999999  0.7500000000000004  0.8342532172747473   T   T   T
  0.4999999999999999  0.2499999999999998  0.0143262552204166   T   T   T
  0.0000000000000000  0.2499999999999998  0.2266380726712197   T   T   T
  0.4999999999999999  0.0250540702031409  0.4893906886536808   T   T   T
  0.0000000000000000  0.2499999999999998  0.7822696593910348   T   T   T
  0.4999999999999999 -0.0028122365493152  0.8306598820176569   T   T   T
  0.4999999999999999  0.7500000000000004  0.0167705584401507   T   T   T
  0.0000000000000000  0.7500000000000004  0.1794996294364442   T   T   T
  0.4999999999999999  0.7500000000000004  0.3394338667027276   T   T   T
  0.4999999999999999  0.4749459297968587  0.4893906886536808   T   T   T
  0.4999999999999999  0.7500000000000004  0.6449507402357547   T   T   T
  0.0000000000000000  0.7500000000000004  0.8306949752071845   T   T   T
  0.4999999999999999  0.5028122365493152  0.8306598820176569   T   T   T
