Sr Co O 
 1.0000000000000000
     3.9017241205516440   -0.0000000000000003    3.9017241205516449
    -3.9218480431832408    3.8236655161448891    3.9218480431832421
    -3.9094013219032222   -7.6424800404289517    0.0076772013515766
 Sr  Co  O  
   5   5  14
Selective dynamics
Direct
  0.0000000000000000 -0.0000000000000000 -0.0000000000000000   T   T   T
  0.6041589121193960  0.4211117615500891  0.2083178242387940   T   T   T
  0.2023324412355964  0.7972943457006911  0.4046648824711932   T   T   T
  0.7976675587644020  0.2027056542993087  0.5953351175288066   T   T   T
  0.3958410878806027  0.5788882384499101  0.7916821757612059   T   T   T
  0.3943872249022498  0.0961715425407270  0.7887744498045014   T   T   T
  0.0000000000000001  0.5000000000000001  0.0000000000000001   T   T   T
  0.6056127750977485  0.9038284574592726  0.2112255501954987   T   T   T
  0.1957920497932434  0.3010673611005908  0.3915840995864873   T   T   T
  0.8042079502067558  0.6989326388994094  0.6084159004135128   T   T   T
  0.1262411638245032  0.8883022763587803  0.7277513067089122   T   T   T
  0.2191698472113441  0.2746088056934148  0.9047642210995620   T   T   T
  0.6855943738882162  0.2746088056934148  0.9047642210995612   T   T   T
  0.7808301527886542  0.7253911943065844  0.0952357789004380   T   T   T
  0.0995440541664844  0.4271001328853430  0.1990881083329689   T   T   T
  0.3144056261117827  0.7253911943065852  0.0952357789004388   T   T   T
  0.3984898571155908  0.1116977236412198  0.2722486932910880   T   T   T
  0.7131308700626138  0.8216636441879693  0.4262617401252301   T   T   T
  0.8737588361754953  0.1116977236412195  0.2722486932910874   T   T   T
  0.0000000000000007  0.4999999999999996  0.5000000000000003   T   T   T
  0.2868691299373842  0.1783363558120307  0.5737382598747696   T   T   T
  0.4999999999999996  0.4999999999999999  0.5000000000000000   T   T   T
  0.6015101428844072  0.8883022763587799  0.7277513067089117   T   T   T
  0.9004559458335136  0.5728998671146560  0.8009118916670305   T   T   T
