Sr Co O 
 1.0000000000000000
     4.2121248252939942    0.1301879985845824    3.9929366810128069
     3.8328459171876252   -3.9675902721579028   -3.7457194387555495
     4.1738938825881515    8.1977784525526438   -3.6954638193779679
 Sr  Co  O  
   6   6  12
Selective dynamics
Direct
 -0.0147076017671828  0.0642893183080227  0.0104711942803828   T   T   T
  0.5036410553169773  0.6277086588347296  0.8514068506341664   T   T   T
  0.0067986608403548  0.2571194232503467  0.6497298790097084   T   T   T
  0.5286317988959192 -0.0022514739596616  0.4796085391424796   T   T   T
  0.0123926797546932  0.7289984690855034  0.3121083754708020   T   T   T
  0.4931313098838044  0.3463930779910687  0.1806481165400295   T   T   T
  0.5451428759054666  0.8180466610710684  0.1577413735269910   T   T   T
  0.0347143704580166  0.5537172511812136  0.0214850368110530   T   T   T
  0.4701910151584153  0.1641874795350169  0.8386975705447703   T   T   T
  0.1161547626321143  0.7821862385283369  0.6450491018225128   T   T   T
  0.4445105538056739  0.4796877814426265  0.4770152080636860   T   T   T
 -0.0529797950957089  0.2398707936717617  0.3332827367715132   T   T   T
  0.2594944474243813  0.7795840129039456  0.0681274610912256   T   T   T
  0.7755914174742247  0.7397362642082590  0.0063057937636052   T   T   T
  0.7529312124915788  0.2712252145320153  0.8578980156569773   T   T   T
  0.2799136151706407  0.3430014167730115  0.9642705206711378   T   T   T
  0.3071438015428040 -0.0115108629402591  0.7331341937327940   T   T   T
 -0.0831862962492144 -0.0980926330775807  0.5406052526304218   T   T   T
  0.2750098081455393  0.5423394945104932  0.6541042479691599   T   T   T
  0.2574880350169005  0.2525855207629957  0.3937646257136121   T   T   T
  0.4422269590985128  0.6845966153477140  0.3338193875964787   T   T   T
  0.7319643312660377  0.3348881999873235  0.4861396080882969   T   T   T
  0.7475094529616541  0.0228571948826259  0.2407834978570194   T   T   T
 -0.0837084788629819  0.4121693461351616  0.1804701923038103   T   T   T
