Sr Co O 
 1.0000000000000000
     4.3674055520538690   -0.0439147260235118    3.9264697109624853
     4.2848180558188460   -3.5413878260969978   -3.7898245873939289
     4.3169406965460064    7.2875218463612095   -3.9722867864963645
 Sr  Co  O  
   6   6  12
Selective dynamics
Direct
  0.0092578287512115 -0.0315490590420347 -0.0103752996323459   T   T   T
  0.5027703556116668  0.6810527675663808  0.8444376842601202   T   T   T
 -0.0022722516631495  0.3252080574620785  0.6606944812430410   T   T   T
  0.4988781171166747  0.0266602056926767  0.5187092756881836   T   T   T
 -0.0167046700337572  0.6543349678650422  0.3341349717711974   T   T   T
  0.4620264307595959  0.3484691947500096  0.1819813988797003   T   T   T
  0.5327884389946373  0.8346490249401103  0.1801822692296959   T   T   T
 -0.0445879751076380  0.4654517824970533 -0.0058691454699598   T   T   T
  0.5373580988269487  0.1598858652768185  0.8350711139066159   T   T   T
 -0.0037886369532855  0.7895049934396576  0.6691504412452660   T   T   T
  0.4983638735567910  0.5526254559681849  0.4973302024374468   T   T   T
 -0.0477991900657935  0.1911569710616008  0.3140339130240743   T   T   T
  0.2800744702896744  0.7195572050314671  0.1375720390961890   T   T   T
  0.7645980603816626  0.6905923750540084  0.0693504419416312   T   T   T
  0.6744781866144510  0.3283319888711912  0.9349440487790041   T   T   T
  0.1158354290873851  0.5817213154725643  0.8222209762150513   T   T   T
  0.2930145962434351  0.0462226431039695  0.7794473490867810   T   T   T
  0.7918024815100730  0.0201308752593832  0.7289253332052503   T   T   T
  0.7284551099409160  0.6571856599139599  0.6015398693699191   T   T   T
  0.2410552355966822  0.7396486648038341  0.5160406278867620   T   T   T
  0.1869229078671114  0.2864414099319004  0.4201747355839611   T   T   T
  0.6907534186037610  0.3653358311427363  0.4036578363273008   T   T   T
  0.7119502597860219 -0.0094507656688656  0.2773250268104131   T   T   T
  0.0947697044330855  0.2434992470790669  0.1226538117562770   T   T   T
