Sr Co O 
 1.0000000000000000
    -4.0059317517459005    3.9881332641825797    0.0396747212302645
    -0.0313565553351549    4.0363948089872235    7.9682792582056541
     3.9049627095050701    7.8760152579529628    0.0828411983752889
 Sr  Co  O  
   6   6  13
Selective dynamics
Direct
 -0.0026094555222883  0.0107897113626889 -0.0050269039390495   T   T   T
  0.8645940579105164  0.4589731225145304  0.8290872961872811   T   T   T
  0.6348490818749412  0.0423691444552788  0.6550856279825735   T   T   T
  0.5108871242709112  0.4674293938396519  0.4989425135137837   T   T   T
  0.3213266421195525  0.0218801174743941  0.3300669381988672   T   T   T
  0.1741025772013600  0.4678103866030399  0.1822798605978751   T   T   T
  0.7399208411913382  0.2723106646406073  0.2332776745994502   T   T   T
  0.6213793149804407  0.7361435306916978  0.1336554960309796   T   T   T
  0.4212362606257351  0.2473946668669054  0.9192976124127605   T   T   T
  0.1275083684793591  0.7822604770943334  0.7447620216487729   T   T   T
  0.0807530416272101  0.2418390416138129  0.5797089106475930   T   T   T
  0.9892070290321672  0.7235002158781682  0.3922706176273384   T   T   T
  0.1000982606201604  0.2581009122132332  0.0719708497370114   T   T   T
  0.5894715297954870  0.2330926451414188  0.0793769667356567   T   T   T
  0.6106907152826571  0.5245045133139695  0.1435314949201512   T   T   T
  0.9438385766867408  0.7436297292967597  0.9663712734709102   T   T   T
  0.7366344364705381  0.2364718501459773  0.7623094698642230   T   T   T
  0.2647462728381308  0.2567789752478368  0.7563647885531173   T   T   T
  0.1047239501192420  0.6958636679631215  0.5961427960306608   T   T   T
  0.2268905893764758 -0.0201025346483009  0.6772559899546738   T   T   T
  0.4221627016903823  0.2414545368530066  0.4116372761482866   T   T   T
  0.9079063197457474  0.2191643513077075  0.4144263466464946   T   T   T
 -0.0463411637878287  0.4946278011536955  0.4846401725014027   T   T   T
  0.2641710402819438  0.8191416239233650  0.2111540859572457   T   T   T
  0.7251853640197872  0.8245714475153266  0.2647440589461488   T   T   T
