Sr Co O 
 1.0000000000000000
    -3.9204738452922374    4.1462984504939744    3.5697759331472425
    -3.8616794140679187   -4.3366154471565386    3.8112670309553383
     4.0532684843213049   -0.2832756853765141    7.5410728044082154
 Sr  Co  O  
   6   6  12
Selective dynamics
Direct
 -0.0531355229697183 -0.0115114504605598  0.0001005051511839   T   T   T
  0.2084035267510391  0.1793850030026830  0.3163056382929131   T   T   T
  0.3779029005421388  0.3358183919044240  0.6588176213978895   T   T   T
  0.5156938622243380  0.5061454527101863 -0.0068977300057112   T   T   T
  0.6854016120027838  0.6498602750539163  0.3337366400209610   T   T   T
  0.8190092960541533  0.7896537630252581  0.6812915935495225   T   T   T
  0.1913116168021667  0.6501107697187538  0.3338629030016661   T   T   T
  0.2954189115645157  0.8277162830565516  0.6825135739465072   T   T   T
  0.4570346517865400 -0.0059064740820261  0.0452572431331938   T   T   T
  0.6937003713968231  0.2030688571605313  0.3275313439776407   T   T   T
  0.9044534008310691  0.2963019810608306  0.6377741938190837   T   T   T
  0.0292544088807422  0.4439439732907563 -0.0240152908127525   T   T   T
  0.2124340952928244  0.8887847595905238  0.1910976755228027   T   T   T
  0.1756478808681456  0.0971644167031201  0.6165364106064969   T   T   T
  0.3107171237348310  0.2637912594717834 -0.0381700484428337   T   T   T
  0.6267735961374018  0.0174562406887413  0.2207825478742151   T   T   T
  0.8936103789944431  0.3703382841101697  0.1992358103381001   T   T   T
  0.4288501238240943  0.4385057156945821  0.3068945143828622   T   T   T
  0.7239161300836748  0.1643105984837352  0.5578859456506914   T   T   T
 -0.0011276172646303  0.5526367156899922  0.4970282081101896   T   T   T
  0.5274686609330094  0.6517060846734015  0.6214129233963187   T   T   T
  0.8503471829083751  0.3531949371387101  0.8550158165932661   T   T   T
  0.1264771573895337  0.6983751984194688  0.8615842168813831   T   T   T
  0.6671027902324353  0.8058156895229626 -0.0422488645498548   T   T   T
