Sr Co O 
 1.0000000000000000
    -3.6431310974022231    3.9097451602529283    4.2203163630527838
    -3.6431310974022231   -3.9097451602529283    4.2203163630527829
     3.6416712548760151    0.0000000000000001    8.4453096750598533
 Sr  Co  O  
   6   6  13
Selective dynamics
Direct
 -0.0159950060521447  0.0023952006939182 -0.0085551325305976   T   T   T
  0.1840227924673684  0.1722579632041028  0.3418168031822089   T   T   T
  0.3277420367958971  0.3159772075326309  0.6581831968177910   T   T   T
  0.4976047993060804  0.5159950060521460  0.0085551325305972   T   T   T
  0.6580090920607748  0.6847476728045487  0.3266724098565809   T   T   T
  0.8152523271954490  0.8419909079392228  0.6733275901434157   T   T   T
  0.1614129361361235  0.6369832402886244  0.3532165161041153   T   T   T
  0.3118614667736256  0.8202945607327146  0.6591482757552344   T   T   T
  0.5107044549953549 -0.0107044549953549  0.0000000000000001   T   T   T
  0.6797054392672863  0.1881385332263729  0.3408517242447655   T   T   T
  0.8630167597113768  0.3385870638638763  0.6467834838958867   T   T   T
  0.0092371962888639  0.4907628037111355 -0.0000000000000005   T   T   T
  0.0893964218283594  0.6219703228903980  0.1808076353464872   T   T   T
  0.2290993346931304  0.7675542082688123  0.4727729480776737   T   T   T
  0.5257994576814178 -0.0257994576814175  0.5000000000000016   T   T   T
  0.0482982135653510  0.0627463089935206  0.6881452966818883   T   T   T
  0.3927363979655150  0.9598744206884685  0.8636164268005431   T   T   T
  0.5401255793115319  0.1072636020344855  0.1363835731994558   T   T   T
  0.9460639767010411  0.2261420511810959  0.1713228452065585   T   T   T
  0.4372536910064773  0.4517017864346498  0.3118547033181126   T   T   T
  0.7324457917311893  0.2709006653068685  0.5272270519223283   T   T   T
 -0.1032350245010803  0.6032350245010814  0.5000000000000002   T   T   T
  0.8780296771096037  0.4106035781716395  0.8191923646535130   T   T   T
  0.2738579488189066  0.5539360232989597  0.8286771547934428   T   T   T
  0.7575542963232512  0.7424457036767486 -0.0000000000000011   T   T   T
