Sr Co O 
 1.0000000000000000
    -3.9740220974566789   -0.0092844779502483   -4.0192896212386247
    -0.0346786592502349   -8.4082763903879201    0.0000932818225034
    -3.6310414185995397    4.2080969692810895    7.7133835198496437
 Sr  Co  O  
   6   6  12
Selective dynamics
Direct
  0.0161475340144004  0.0732365168805677  0.0211301648602593   T   T   T
  0.6666666666666653  0.1666666666666660  0.3333333333333331   T   T   T
  0.3171857993189314  0.2600968164527646  0.6455365018064073   T   T   T
 -0.0264121952649643  0.4881851632885814 -0.0565576133216049   T   T   T
  0.6666666666666661  0.6666666666666666  0.3333333333333335   T   T   T
  0.3597455285982956  0.8451481700447508  0.7232242799882714   T   T   T
  0.4568256153700098  0.7392433372821586  0.0329931040874990   T   T   T
  0.0456466721813662  0.9134480472109930  0.2663274774157608   T   T   T
  0.8368219494558381  0.0367797817488643  0.6643723003775711   T   T   T
  0.4965113838774926  0.2965535515844688  0.0022943662890955   T   T   T
  0.2876866611519659  0.4198852861223414  0.4003391892509060   T   T   T
  0.8765077179633213  0.5940899960511755  0.6336735625791672   T   T   T
  0.7179381351684293  0.9193513512470766  0.0772825102990566   T   T   T
  0.2696735892198906  0.7578994737712075  0.1907143233787040   T   T   T
  0.1666666666666658  0.1666666666666662  0.3333333333333334   T   T   T
 -0.0838650548610016 -0.0112037320103923  0.4630906907834743   T   T   T
  0.1666666666666642  0.1666666666666653  0.8333333333333331   T   T   T
  0.6666666666666663  0.1666666666666660  0.8333333333333343   T   T   T
  0.6191472386670432  0.5287489126473059  0.0319010407995843   T   T   T
  0.4171983881943336  0.3445370653437252  0.2035759758831929   T   T   T
  0.6153951981649022  0.4139819820862564  0.5893841563676095   T   T   T
  0.0636597441134414  0.5754338595621258  0.4759523432879630   T   T   T
  0.1666666666666648  0.6666666666666662  0.8333333333333333   T   T   T
  0.7141860946662905  0.8045844206860288  0.6347656258670836   T   T   T
