Sr Co O 
 1.0000000000000000
     4.2704668705281135   -0.0147177425905637    4.2121176832005718
     4.0995354289717358   -4.0288323359699101   -4.0344035288064681
     4.0328936807532054    7.9641617551776420   -4.0097912746521898
 Sr  Co  O  
   6   6  12
Selective dynamics
Direct
 -0.0811404051962370  0.0272136877238774 -0.0266040338764267   T   T   T
  0.5612655104692151  0.6863725370471353  0.7816440996771711   T   T   T
 -0.0344234794034088  0.3109620179199050  0.6404721473051677   T   T   T
  0.5010907576094432  0.0538249579568996  0.5377685223282539   T   T   T
  0.0747027222096567  0.6517787554279245  0.3600398339898112   T   T   T
  0.4493757793154439  0.3252864418671290  0.2149308081033310   T   T   T
  0.6642140600787162  0.7724603278096945  0.1924388909305871   T   T   T
 -0.0992130435644647  0.4585286868591696  0.0129401680276287   T   T   T
  0.4131672085171312  0.2924090126214888  0.8609147858866939   T   T   T
  0.0153472480426542  0.8225835712851772  0.6509839328417649   T   T   T
  0.5486662142704435  0.5121355758976751  0.4968244926411695   T   T   T
 -0.0322558971278209  0.1892521818144091  0.3136671780149981   T   T   T
  0.7379136914690639  0.7070501142264120  0.0076060412606810   T   T   T
  0.6341534542400944  0.2709794666464028  0.9945778107782642   T   T   T
  0.1047688124251300  0.3239524406743861  0.8793610086225915   T   T   T
  0.5148345683906795  0.3571901401514271  0.6835402124002226   T   T   T
  0.8085510814337526 -0.0180252724291892  0.7275530023533069   T   T   T
  0.8237552249478242  0.6328077712634473  0.5771455297097642   T   T   T
  0.2958650351006044  0.7602620106009107  0.5964224749986816   T   T   T
  0.2111413895966705  0.2583017634152338  0.4363710327204510   T   T   T
  0.4792438443481524  0.6487723873009420  0.3152065355590974   T   T   T
  0.7098355968026672  0.2837450002443321  0.4147585850041569   T   T   T
  0.9019344333530366 -0.0596647119364193  0.2329674782755555   T   T   T
  0.0472061476919148  0.3984880544555153  0.1818027321937495   T   T   T
