Sr Co O 
 1.0000000000000000
     3.9558812594554831    0.0000000000000000    0.0000000000000000
     0.0000000000000000    3.7583521514523865    0.0000000000000000
     0.0000000000000000    0.0000000000000000   31.9292489943324789
 Sr  Co  O  
   8   8  20
Selective dynamics
Direct
  0.0000000000000000  0.0000000000000000 -0.0050828893573900   T   T   T
  0.0000000000000000  0.0000000000000000  0.1101489530881066   T   T   T
  0.0000000000000000  0.0000000000000000  0.2596592056592275   T   T   T
  0.0000000000000000  0.0000000000000000  0.3830388179472394   T   T   T
  0.0000000000000000  0.0000000000000000  0.5025871807515845   T   T   T
  0.0000000000000000  0.0000000000000000  0.6276995642455238   T   T   T
  0.0000000000000000  0.0000000000000000  0.7491804162512828   T   T   T
  0.0000000000000000  0.0000000000000000  0.8703529053948552   T   T   T
  0.4999999999999999  0.5000000000000000  0.0587441113522359   T   T   T
  0.4999999999999999  0.5000000000000000  0.1849241449111410   T   T   T
  0.4999999999999999  0.5000000000000000  0.3183625762832057   T   T   T
  0.4999999999999999  0.5000000000000000  0.4392232819380801   T   T   T
  0.4999999999999999  0.5000000000000000  0.5667950034067039   T   T   T
  0.4999999999999999  0.5000000000000000  0.6883402038863013   T   T   T
  0.4999999999999999  0.5000000000000000  0.8101838061253510   T   T   T
  0.4999999999999999  0.5000000000000000  0.9318602942881717   T   T   T
  0.0000000000000000  0.5000000000000000  0.0542646291256482   T   T   T
  0.4999999999999999  0.0000000000000000  0.0537939269227513   T   T   T
  0.4999999999999999  0.5000000000000000  0.1272452372184735   T   T   T
  0.4999999999999999  0.0000000000000000  0.2038940135659566   T   T   T
  0.0000000000000000  0.5000000000000000  0.3057699447647966   T   T   T
  0.4999999999999999  0.0000000000000000  0.3067201299035756   T   T   T
  0.4999999999999999  0.5000000000000000  0.3775947574486592   T   T   T
  0.0000000000000000  0.5000000000000000  0.4453001156925632   T   T   T
  0.4999999999999999  0.0000000000000000  0.4481641466620377   T   T   T
  0.0000000000000000  0.5000000000000000  0.5561304716144791   T   T   T
  0.4999999999999999  0.0000000000000000  0.5514436904220114   T   T   T
  0.4999999999999999  0.5000000000000000  0.6228344939221577   T   T   T
  0.0000000000000000  0.5000000000000000  0.6851803363573917   T   T   T
  0.4999999999999999  0.0000000000000000  0.6851238652499366   T   T   T
  0.4999999999999999  0.5000000000000000  0.7492866986138595   T   T   T
  0.0000000000000000  0.5000000000000000  0.8133230860565180   T   T   T
  0.4999999999999999  0.0000000000000000  0.8135232230154165   T   T   T
  0.4999999999999999  0.5000000000000000  0.8759095027883724   T   T   T
  0.0000000000000000  0.5000000000000000  0.9426458926798064   T   T   T
  0.4999999999999999  0.0000000000000000  0.9483342606753734   T   T   T
