Sr Co O 
 1.0000000000000000
    -4.0481296077766222    4.0481296077766196   -0.0000000000000001
    -0.0314837740203427    4.0166458337562840    7.9374332234258107
     3.9069121132406432    7.9550417210172615    0.0234151230397948
 Sr  Co  O  
   6   6  12
Selective dynamics
Direct
  0.0212946013500173 -0.0537943818578257  0.0112051791577910   T   T   T
  0.8231562614502267  0.5452666943998326  0.8084207826997184   T   T   T
  0.6689396737802635 -0.0355249014459010  0.6976455538853764   T   T   T
  0.4725051984713234  0.5489408094443582  0.5060487936129983   T   T   T
  0.3410465268030871 -0.0228896461218210  0.3407965925156488   T   T   T
  0.1595182465340244  0.5206677332523856  0.1602957736795678   T   T   T
  0.7294868705017237  0.2500783951709560  0.2909478638255972   T   T   T
  0.5783664422431045  0.7531031054419746  0.0901640100718182   T   T   T
  0.4171280466499552  0.2527386197252500  0.9130052869748435   T   T   T
  0.2418130375124942  0.7662543334315873  0.7501195915434303   T   T   T
  0.1059636304177218  0.2481491900922849  0.5399235490722728   T   T   T
  0.9217195992158017  0.7297966068866187  0.4267641946817831   T   T   T
  0.9090321795667360  0.7316036312608670  0.9322180076179336   T   T   T
  0.4271461815544669  0.7316036312608670  0.9322180076179341   T   T   T
  0.4858696679863508  0.0327940795339005 -0.0045334155066021   T   T   T
  0.3478480441598121  0.4722458240059758  0.8320580876744055   T   T   T
  0.5782930314697767  0.7793707312233118  0.5744443063820923   T   T   T
  0.0678919309248235  0.7793707312233118  0.5744443063820911   T   T   T
  0.1321124625125062  0.0320673722978827  0.7037077026771099   T   T   T
  0.4170367155790715  0.2475036923800037  0.3435602575278716   T   T   T
  0.9918993345130541  0.2475036923800038  0.3435602575278722   T   T   T
 -0.0095329049421781  0.4670011774441171  0.5520646324402414   T   T   T
  0.2533934251831122  0.7380744381740334  0.2571270067784118   T   T   T
  0.7514051298644442  0.7380744381740334  0.2571270067784113   T   T   T
