Sr Co O 
 1.0000000000000000
    -3.5668667971921115    3.5143917900768900    4.5815361523755183
    -3.6290380045680930   -3.5560159598588026    4.5640303612009596
     3.6780551005477551    0.0487487813738478    9.2845504794556408
 Sr  Co  O  
   6   6  12
Selective dynamics
Direct
 -0.0554619927642590 -0.0261349549246640  0.0093714004991392   T   T   T
  0.1697953371522626  0.1734149604809048  0.3789913986047687   T   T   T
  0.3201789681114718  0.3398060102662698  0.7091088641273632   T   T   T
  0.4589571835226149  0.4865961011280147  0.0234175544409961   T   T   T
  0.6457866443852363  0.6558251001470519  0.3675833885583792   T   T   T
  0.8223417027104530  0.8485440713873077  0.7120486134832247   T   T   T
  0.1237201979432921  0.7108740492378801  0.3563358543070012   T   T   T
  0.3360467343237268  0.8430240941825109  0.7114736816657983   T   T   T
  0.4243949092039419 -0.0224023563029565  0.0348416076246158   T   T   T
  0.7590194896644028  0.1332805836479481  0.3260952187737801   T   T   T
  0.8204764759909533  0.3564032879364476  0.7119084875495484   T   T   T
 -0.0571351961256529  0.4683543555821699  0.0289185380937327   T   T   T
  0.2088118246023351  0.7395373183173827  0.4931903178623075   T   T   T
  0.5958123853413756  0.0930225717946290  0.2373081397065004   T   T   T
  0.1336850611629124  0.1519737497264857  0.6337601130742638   T   T   T
  0.3820466096926914  0.9140190712026480  0.8729927735283295   T   T   T
  0.6165248888475559  0.1709779448069016  0.8732976149873740   T   T   T
  1.0902058252822662  0.1503729498255491  0.1547130383503122   T   T   T
  0.7299004877732845  0.2225107255539718  0.4870687288744047   T   T   T
  0.0775323812201821  0.6037667026049880  0.2390370485900868   T   T   T
  0.6497622541849016  0.6664383560116405  0.6125013079782313   T   T   T
  0.8881613772624115  0.4106594925478884  0.8702097113023050   T   T   T
  0.1417758929730778  0.6507260394400616  0.8702191959680149   T   T   T
  0.6343271181176529  0.6750765090563668  0.1189408404758448   T   T   T
