Sr Co O 
 1.0000000000000000
     3.7687079539060497    4.2131933533680419   -0.0236876352897801
     3.7687079539060497   -4.2131933533680419   -0.0236876352897800
     0.0703729514999433    0.0000000000000001  -11.3696821430219970
 Sr  Co  O  
   6   6  13
Selective dynamics
Direct
  0.0094866459217559 -0.0091841799880553  0.0129574442396151   T   T   T
  0.0068030305396757  0.0065384832155162  0.6612880729680654   T   T   T
 -0.0081592773810207 -0.0021875643227139  0.3225490952053733   T   T   T
  0.4908158200119431  0.5094866459217563  0.0129574442396152   T   T   T
  0.5065384832155156  0.5068030305396770  0.6612880729680650   T   T   T
  0.4978124356772852  0.4918407226189803  0.3225490952053732   T   T   T
  0.5182733359565559  0.0182733359565558  0.8262046921435572   T   T   T
  0.4896374833454684 -0.0103625166545317  0.5030875220172109   T   T   T
  0.4993390413957973 -0.0006609586042028  0.1626302134679566   T   T   T
 -0.0026797071439923  0.4973202928560091  0.8330213977290091   T   T   T
  0.0294411710322415  0.5294411710322430  0.4863476925952570   T   T   T
 -0.0093127927694746  0.4906872072305267  0.1727266277979991   T   T   T
  0.4562468889044229 -0.0437531110955772 -0.0216323344444401   T   T   T
  0.2100673188786064  0.2928213956905384  0.8301643364603163   T   T   T
  0.5867868756864929  0.0867868756864931  0.6696343122849527   T   T   T
  0.2427889409999757  0.7427889409999786  0.5622180461373035   T   T   T
  0.2165484508101760  0.2795312531434872  0.5099753733435446   T   T   T
  0.5230555779324432  0.0230555779324431  0.3390377820297331   T   T   T
  0.2367440983840158  0.7367440983840187  0.1745096979248338   T   T   T
  0.2290894990582551  0.2633371616610400  0.1597547723064354   T   T   T
  0.7928213956905360  0.7100673188786077  0.8301643364603155   T   T   T
  0.7795312531434853  0.7165484508101778  0.5099753733435445   T   T   T
 -0.0720609100488580  0.4279390899511428  0.3450557894277094   T   T   T
  0.7570477410680669  0.2570477410680679  0.1204469421080677   T   T   T
  0.7633371616610379  0.7290894990582566  0.1597547723064356   T   T   T
