Sr Co O 
 1.0000000000000000
    -3.8507752567177214    4.0510642798550602    3.9746133824063814
    -3.7561556481464442   -3.9243397578210000    3.9305716707116698
     3.8686995645509179    0.0012454399999598    7.9778124473288026
 Sr  Co  O  
   6   6  12
Selective dynamics
Direct
 -0.0370410014662758  0.0217064309823925  0.0166750011794990   T   T   T
  0.1685972159273814  0.1975609555294301  0.3578856035091649   T   T   T
  0.3057935064131507  0.3475398468721295  0.6633189950051095   T   T   T
  0.4867809089403636  0.5321933379532591  0.0264746414781103   T   T   T
  0.6809518141663400  0.6793433493271593  0.3543469390388844   T   T   T
  0.8046885700768107  0.8873033758177545  0.6674322856016897   T   T   T
  0.1363027503175837  0.6946660251949934  0.3311713866512754   T   T   T
  0.3104362002731492  0.8635812887555284  0.7110056428076259   T   T   T
  0.4937366673931897  0.0169298149980694  0.0207565084578089   T   T   T
  0.6466238324122364  0.1876855548991879  0.3616259145065775   T   T   T
  0.8453904780530462  0.3551087122869834  0.6798619546697360   T   T   T
 -0.0069913724293039  0.5512096092612103 -0.0203754657272107   T   T   T
  0.0506689634162367  0.5615571382393246  0.1836505533754810   T   T   T
  0.5071107513906256 -0.0412628471690658  0.5181533837507404   T   T   T
  0.0606245198891690  0.0807566879025177  0.6617063871068559   T   T   T
  0.3426122098104544  0.9946197881793547  0.8881082375393369   T   T   T
  0.5313206073301219  0.1360631596077736  0.1695050133621192   T   T   T
  0.4242593035969041  0.5076398143208209  0.3239864918779659   T   T   T
  0.9565268904154804 -0.0006580661895397  0.3023957368329616   T   T   T
 -0.0170973204144061  0.5789615907850560  0.5410838335966198   T   T   T
  0.6884760026841269  0.3057118288741372  0.5458201436006883   T   T   T
  0.8597019118014704  0.3988204380173923  0.8881558423695102   T   T   T
  0.2632263137937718  0.5886429272206174  0.8320524270064121   T   T   T
  0.7473003344012765  0.8043191895333638 -0.0247975485703607   T   T   T
