Sr Co O 
 1.0000000000000000
     3.7396666213710175    0.0000000000000000    0.0000000000000000
     0.0000000000000000    3.7880179775753620    0.0000000000000000
     0.0000000000000000    0.0000000000000000   34.3121816287871439
 Sr  Co  O  
   8   8  20
Selective dynamics
Direct
  0.0000000000000000  0.0000000000000000 -0.0189946054063970   T   T   T
  0.0000000000000000  0.0000000000000000  0.1265270390773075   T   T   T
  0.0000000000000000  0.0000000000000000  0.2701573514564330   T   T   T
  0.0000000000000000  0.0000000000000000  0.3799218868012408   T   T   T
  0.0000000000000000  0.0000000000000000  0.5096283088302002   T   T   T
  0.0000000000000000  0.0000000000000000  0.6277703698557661   T   T   T
  0.0000000000000000  0.0000000000000000  0.7452703203673706   T   T   T
  0.0000000000000000  0.0000000000000000  0.8622853092516930   T   T   T
  0.5000000000000000  0.5000000000000000  0.0580560709959951   T   T   T
  0.5000000000000000  0.5000000000000000  0.1948408292492968   T   T   T
  0.5000000000000000  0.5000000000000000  0.3264685461481059   T   T   T
  0.5000000000000000  0.5000000000000000  0.4421515143910574   T   T   T
  0.5000000000000000  0.5000000000000000  0.5701468112796721   T   T   T
  0.5000000000000000  0.5000000000000000  0.6870109812184545   T   T   T
  0.5000000000000000  0.5000000000000000  0.8035817211238967   T   T   T
  0.5000000000000000  0.5000000000000000  0.9214711899516916   T   T   T
  0.5000000000000000  0.5000000000000000  0.0061832398061946   T   T   T
  0.0000000000000000  0.5000000000000000  0.0839043118393739   T   T   T
  0.5000000000000000  0.0000000000000000  0.1707216179034948   T   T   T
  0.5000000000000000  0.5000000000000000  0.2470806909689404   T   T   T
  0.0000000000000000  0.5000000000000000  0.3209548129972299   T   T   T
  0.5000000000000000  0.0000000000000000  0.3204924942841506   T   T   T
  0.5000000000000000  0.5000000000000000  0.3874649904062196   T   T   T
  0.5000000000000000  0.0000000000000000  0.4399288954306809   T   T   T
  0.5000000000000000  0.5000000000000000  0.4939244071756894   T   T   T
  0.0000000000000000  0.5000000000000000  0.5615010316352456   T   T   T
  0.5000000000000000  0.0000000000000000  0.5623319769293827   T   T   T
  0.5000000000000000  0.5000000000000000  0.6240901710390715   T   T   T
  0.0000000000000000  0.5000000000000000  0.6849239008144784   T   T   T
  0.5000000000000000  0.0000000000000000  0.6849493051296489   T   T   T
  0.5000000000000000  0.5000000000000000  0.7459666893950572   T   T   T
  0.0000000000000000  0.5000000000000000  0.8071813249628178   T   T   T
  0.5000000000000000  0.0000000000000000  0.8071756960490326   T   T   T
  0.5000000000000000  0.5000000000000000  0.8682573810956983   T   T   T
  0.0000000000000000  0.5000000000000000  0.9324805712026726   T   T   T
  0.5000000000000000  0.0000000000000000  0.9316929443512513   T   T   T
