Sr Co O 
 1.0000000000000000
    -3.8771738169767795    3.9994093085663849    4.0307863882211850
    -3.7173249853392267   -3.9270163205429292    4.1180955109428030
     3.7845215694650922   -0.1716642302794967    8.1445467215561429
 Sr  Co  O  
   6   6  13
Selective dynamics
Direct
 -0.0055197069287430  0.0077914271676740 -0.0218940011465627   T   T   T
  0.1539624109739681  0.1771089842228210  0.3579185990952924   T   T   T
  0.3333126710103180  0.3291866024037317  0.6343193084415728   T   T   T
  0.5383061547484730  0.4818562046244270 -0.0023502344588542   T   T   T
  0.6445984420718661  0.6493663043330916  0.3692809278991341   T   T   T
  0.8429279524911333  0.8113331225899675  0.6465719663855128   T   T   T
  0.1846687329513849  0.6817194656278981  0.3273182757372731   T   T   T
  0.3288302470037822  0.8050356201832443  0.6739697522514678   T   T   T
  0.5063799181829540 -0.0474327487060195  0.0588582725626423   T   T   T
  0.6631603621732550  0.1814815462855851  0.3325454661790883   T   T   T
  0.8468616535197679  0.3295735869809392  0.6566976083397211   T   T   T
 -0.0242819680508666  0.5268496827610872 -0.0168411576410585   T   T   T
  0.2365504570840716  0.9310821519297398  0.1564299244740371   T   T   T
  0.2352269805502104  0.7439738772787150  0.5080280909591102   T   T   T
  0.5251958945011420 -0.0301002275246024  0.5119549217503597   T   T   T
  0.0887383829474895  0.0908049074373192  0.6695115968901690   T   T   T
  0.6372878141506543  0.0742079923141915  0.1497222996503383   T   T   T
  0.8643040617572634  0.3600195627036484  0.1842997517874682   T   T   T
  0.4024282508587074  0.4256981040012180  0.3042091306284296   T   T   T
  0.7502289668179875  0.2229302608709982  0.5232446024526799   T   T   T
 -0.0289566099645918  0.5467931068235994  0.4554279754383860   T   T   T
  0.5802185258595718  0.5166218944266124  0.6969016699814711   T   T   T
  0.9467433955302754  0.3973348282898061  0.8210506098850839   T   T   T
  0.2011600186308022  0.6644074022509303  0.9000213827684103   T   T   T
  0.7143337860038067  0.7890231262039903 -0.0638634307227812   T   T   T
