Sr Co O 
 1.0000000000000000
    -3.9739785850171012    3.9317995364336071   -0.0635792152076674
     0.0026270061926634    3.8039173957780412    8.2242787960665460
     3.8049390007681669    7.6912662004334562   -0.0370726614107588
 Sr  Co  O  
   6   6  13
Selective dynamics
Direct
  0.0136250069674673  0.0150004607857270 -0.0311037711227749   T   T   T
  0.8396033737288764  0.4859821595460100  0.8198293221960966   T   T   T
  0.6666999676732627  0.0242037839109226  0.6619717705450298   T   T   T
  0.4927843966699977  0.4684220328790615  0.5372755199456708   T   T   T
  0.3574158755109549  0.0217065764308875  0.3380233908085160   T   T   T
  0.1797560224310298  0.4926932054824464  0.1610558273659789   T   T   T
  0.7229630459784788  0.2989396980372003  0.2420890794501153   T   T   T
  0.5406325174545229  0.7475207933944804  0.1456978330857883   T   T   T
  0.4719404149644738  0.2128656506492901  0.9242155570376031   T   T   T
  0.2046067451756071  0.7597477599253655  0.7154558858263304   T   T   T
  0.1004439735499194  0.2495315841274344  0.5714325613132142   T   T   T
  0.9326639971168975  0.7194117271772330  0.4072457603183423   T   T   T
  0.6117104649990794  0.2321849039980750  0.0901136905478672   T   T   T
  0.7225364903942518  0.5317783181556514  0.1177427463041485   T   T   T
  0.5663046496983314 -0.0322875917646188 -0.0111223699603769   T   T   T
  0.7676154411778517  0.2507064641917519  0.7234319570878488   T   T   T
  0.2237490752983366  0.2538544184686026  0.8066184161044676   T   T   T
  0.3537557606941513  0.5560891396186944  0.8220775135583570   T   T   T
 -0.0611191427022346  0.7744869196888061  0.6053051140661391   T   T   T
  0.2089287971156918 -0.0253784476241004  0.6767454203632418   T   T   T
  0.4510307984404941  0.2303023836034720  0.4402695741526278   T   T   T
  0.9833965627630683  0.2328657878594152  0.3607235391436281   T   T   T
  0.0472568459266963  0.4884243186623964  0.4950967697730627   T   T   T
  0.1668144054350898  0.7647756275438360  0.1825749154713777   T   T   T
  0.6015512227576852  0.7461723130897639  0.3639006579377540   T   T   T
