Sr Co O 
 1.0000000000000000
     3.6198814186680255    0.0000000000000000    0.0000000000000000
     0.0000000000000000    8.6686839924195382   -0.0600366655521198
     0.0000000000000000   -0.0930013791331913   12.2071268226888847
 Sr  Co  O  
   6   6  12
Selective dynamics
Direct
  0.0000000000000000  0.0297056725432760 -0.0506161636683874   T   T   T
  0.0000000000000000  0.0229181125272748  0.3590575891966970   T   T   T
  0.0000000000000000 -0.0498675417089841  0.6758029100018091   T   T   T
  0.0000000000000000  0.5193423034079292 -0.0057189809330566   T   T   T
  0.0000000000000000  0.4280136966708277  0.3516141025886191   T   T   T
  0.0000000000000000  0.5002325155526924  0.6319266278653796   T   T   T
  0.4999999999999993  0.2741159237788255  0.1432947783069913   T   T   T
  0.4999999999999993  0.2043816005814406  0.5477386922925955   T   T   T
  0.4999999999999993  0.2745832827205981  0.8288367170539859   T   T   T
  0.4999999999999993  0.6825352621445133  0.2304023791203257   T   T   T
  0.4999999999999993  0.7593416448416412  0.4930645844207233   T   T   T
  0.4999999999999993  0.7051808599624531  0.8195095249119965   T   T   T
  0.4999999999999993  0.2253500732659377 -0.0031316528725145   T   T   T
  0.4999999999999993  0.2167667376674208  0.2840638502170159   T   T   T
  0.0000000000000000  0.2455155163085198  0.4975527428030438   T   T   T
  0.4999999999999993 -0.0225473358201049  0.5224978825793153   T   T   T
  0.4999999999999993  0.3177677897394025  0.6819409764663122   T   T   T
  0.4999999999999993  0.0574558776921924  0.8093166344591284   T   T   T
  0.4999999999999993  0.5112647881565585  0.1454302162921477   T   T   T
  0.4999999999999993  0.8205930882537582  0.3367046880194744   T   T   T
  0.4999999999999993  0.5481055186088557  0.4669377569798088   T   T   T
  0.4999999999999993  0.7278179338300331  0.6562491307332090   T   T   T
  0.0000000000000000  0.7653530591256015  0.8803792048840852   T   T   T
  0.4999999999999993  0.4860735455860636  0.8638124212404305   T   T   T
