Sr Co O 
 1.0000000000000000
    -3.9193689428600589    3.9193689428600758   -0.0000000000000000
    -0.0328780723321482    3.8864908705279251    8.0902712907936181
     3.9818873897262832    7.9012563325863781   -0.0795129809781095
 Sr  Co  O  
   6   6  12
Selective dynamics
Direct
  0.0189448973649892 -0.0017371130519743 -0.0205432411679606   T   T   T
  0.8440075602079332  0.4734738192315746  0.8534434705652885   T   T   T
  0.6709248500047980  0.0265261807684234  0.6465565294347130   T   T   T
  0.4966645431450561  0.5017371130519721  0.5205432411679618   T   T   T
  0.2974459227516139  0.0217177218859665  0.3423573819480903   T   T   T
  0.1615210265856711  0.4782822781140315  0.1576426180519103   T   T   T
  0.7775147653893401  0.2499999999999989  0.2500000000000007   T   T   T
  0.5702711653336532  0.7397928101737187  0.1282101401060327   T   T   T
  0.4176939127440327  0.2050309932503169  0.9038044911587549   T   T   T
  0.2401570453227580  0.7499999999999983  0.7499999999999994   T   T   T
  0.0265293971531037  0.2949690067496807  0.5961955088412457   T   T   T
  0.9382741156134059  0.7602071898262771  0.3717898598939706   T   T   T
  0.7471462136246687  0.0153534114179380  0.3492318365633801   T   T   T
  0.1152789150852503  0.2277554332647092  0.0823763382219217   T   T   T
  0.6117314616059883  0.4846465885820599  0.1507681634366200   T   T   T
  0.5005098269591464 -0.0526698173240424 -0.0469414804118417   T   T   T
  0.7632704380566824  0.2410467860888975  0.8144140191661190   T   T   T
  0.3187312433116999  0.2589532139111001  0.6855859808338828   T   T   T
  0.2880691342942463  0.5370445473236405  0.8393987701557596   T   T   T
  0.1645124517736493 -0.0370445473236430  0.6606012298442410   T   T   T
  0.9254106865718836  0.2722445667352892  0.4176236617780805   T   T   T
 -0.0991014707767379  0.5526698173240405  0.5469414804118429   T   T   T
  0.3059245954197415  0.7596754673413553  0.3329672427745961   T   T   T
  0.8985673055356939  0.7403245326586405  0.1670327572254056   T   T   T
