Sr Co O 
 1.0000000000000000
    -3.8570395490139688    0.0000000000000000   -3.7504888292279799
     0.0000000000000001   -8.1712597126188662   -0.0000000000000000
    -3.7551384405783415    4.0856298563094331    7.4017587420776856
 Sr  Co  O  
   6   6  14
Selective dynamics
Direct
  0.0130994090356852  0.0086892009074234  0.0060747471382381   T   T   T
  0.6666666666666663  0.1793353057190838  0.3333333333333336   T   T   T
  0.3202339242976470  0.3359477871025187  0.6605919195284292   T   T   T
  0.0130994090356852  0.4973855462308147  0.0060747471382381   T   T   T
  0.6666666666666663  0.6539980276142501  0.3333333333333336   T   T   T
  0.3202339242976470  0.8246441324259101  0.6605919195284292   T   T   T
  0.5010740063494975  0.7518278471679340  0.0036556943358671   T   T   T
  0.1666666666666667  0.9166666666666674  0.3333333333333337   T   T   T
  0.8322593269838348  0.0815054861653994  0.6630109723308001   T   T   T
  0.4929025358506361  0.2483909932365247 -0.0032180135269505   T   T   T
  0.1666666666666666  0.4166666666666668  0.3333333333333337   T   T   T
  0.8404307974826968  0.5849423400968090  0.6698846801936179   T   T   T
  0.8236787952043519  0.8381749334988269  0.1763498669976528   T   T   T
  0.5077579005768181 -0.0285072842134381 -0.0106334849837856   T   T   T
  0.5096545381289815 -0.0048416001654929  0.4903167996690153   T   T   T
  0.1666666666666666  0.1404937460133774  0.3333333333333337   T   T   T
  0.1899100576987422  0.1520370583830213  0.8040741167660441   T   T   T
  0.8255754327565148  0.3154595341036812  0.6773001516504535   T   T   T
  0.8450828466469609  0.3112705587573610  0.1225411175147223   T   T   T
  0.5077579005768181  0.5178737992296528 -0.0106334849837856   T   T   T
  0.3646152805937985  0.3445840817933287  0.1891681635866575   T   T   T
  0.4882504866863719  0.5220627745759727  0.5441255491519454   T   T   T
  0.1666666666666667  0.6928395873199561  0.3333333333333337   T   T   T
 -0.0312819472604652  0.4887492515400050  0.4774985030800105   T   T   T
  0.1434232756345906  0.6812962749503116  0.8625925499006236   T   T   T
  0.8255754327565148  0.8618406175467724  0.6773001516504535   T   T   T
