Sr Co O 
 1.0000000000000000
    -3.7814058862461715    4.0214737054814851    0.0000000000000000
     3.7814058862461715    4.0214737054814851    0.0000000000000000
    -0.0000000000000000   -4.0214737054814851  -12.0449532593031208
 Sr  Co  O  
   6   6  13
Selective dynamics
Direct
  0.0000000000000000  0.0000000000000000 -0.0000000000000000   T   T   T
  0.8427307582346928  0.8427307582346948  0.6537869775686787   T   T   T
  0.6889437806660134  0.6889437806660154  0.3462130224313209   T   T   T
  0.5000000000000006  0.5000000000000019 -0.0000000000000000   T   T   T
  0.3110562193339866  0.3110562193339875  0.6537869775686789   T   T   T
  0.1572692417653078  0.1572692417653082  0.3462130224313211   T   T   T
  0.8693630824700153  0.4484862136987559  0.8178492961687703   T   T   T
  0.7491358363125301  0.2508641636874701  0.4999999999999998   T   T   T
  0.5515137863012448  0.1306369175299843  0.1821507038312289   T   T   T
  0.4484862136987554  0.8693630824700173  0.8178492961687703   T   T   T
  0.2508641636874710  0.7491358363125312  0.4999999999999998   T   T   T
  0.1306369175299852  0.5515137863012457  0.1821507038312289   T   T   T
  0.6728005769014557  0.1728005769014571  0.8456011538029129   T   T   T
  0.8030761472532006  0.3565484774568651  0.6596246247100649   T   T   T
 -0.0000000000000005 -0.0000000000000004  0.4999999999999998   T   T   T
  0.4999999999999994 -0.0000000000000003  0.4999999999999998   T   T   T
  0.6434515225431359  0.1969238527467991  0.3403753752899348   T   T   T
  0.3271994230985442  0.8271994230985457  0.1543988461970864   T   T   T
  0.7025876259108408  0.7025876259108428  0.9051752518216815   T   T   T
  0.1728005769014567  0.6728005769014580  0.8456011538029129   T   T   T
  0.3565484774568646  0.8030761472532029  0.6596246247100649   T   T   T
  0.0000000000000005  0.5000000000000007  0.4999999999999998   T   T   T
  0.1969238527468000  0.6434515225431370  0.3403753752899348   T   T   T
  0.2974123740891587  0.2974123740891595  0.0948247481783170   T   T   T
  0.8271994230985431  0.3271994230985444  0.1543988461970864   T   T   T
