Sr Co O 
 1.0000000000000000
     3.6752329699828361    0.0000000000000000    0.0000000000000000
     0.0000000000000000    8.3240002342366655   -0.0029585719208200
     0.0000000000000000    0.0095247442883875   12.0980472307219387
 Sr  Co  O  
   6   6  12
Selective dynamics
Direct
  0.0000000000000000 -0.0269486211909016  0.0211048131662429   T   T   T
  0.0000000000000000 -0.0017117767798144  0.3297632775107556   T   T   T
  0.0000000000000000 -0.0049063733588998  0.6706649534590705   T   T   T
  0.0000000000000000  0.5257461911397371 -0.0209032423970498   T   T   T
  0.0000000000000000  0.5177181678349850  0.3381808939371111   T   T   T
  0.0000000000000000  0.5304248529055242  0.6727762307946203   T   T   T
  0.5000000000000001  0.2677606990377568  0.1742923556908885   T   T   T
  0.5000000000000001  0.2456727474562218  0.5282783770555736   T   T   T
  0.5000000000000001  0.2648706894227362  0.8425823974444248   T   T   T
  0.5000000000000001  0.7220114213129267  0.1649480313474883   T   T   T
  0.5000000000000001  0.7943953492769995  0.5046753638584808   T   T   T
  0.5000000000000001  0.7553856227019444  0.8332991473691262   T   T   T
  0.5000000000000001  0.0583627791630938  0.1668810446356524   T   T   T
  0.0000000000000000  0.3416136488848363  0.5008008743299225   T   T   T
  0.5000000000000001  0.0270127126498336  0.4632110086347600   T   T   T
  0.5000000000000001  0.1914044523480965  0.6891852401328514   T   T   T
  0.0000000000000000  0.2326722403216085  0.9127159836452365   T   T   T
  0.5000000000000001  0.7480011159109569  0.0069246124313913   T   T   T
  0.0000000000000000  0.7624677331433717  0.2091470877289432   T   T   T
  0.5000000000000001  0.4766338435084507  0.2012058302149051   T   T   T
  0.0000000000000000  0.7410274013553320  0.4617607730857886   T   T   T
  0.5000000000000001  0.7437693774893490  0.6601191396788407   T   T   T
  0.0000000000000000  0.8305875291642564  0.8373779915637064   T   T   T
  0.5000000000000001  0.5060281008220580  0.8310078504093673   T   T   T
