Sr Co O 
 1.0000000000000000
     4.1195892588606986    0.0698012486937495    4.1421460575664275
     3.8698913216308450   -3.8731837011726822   -3.9722485162511179
     4.1399723085858193    8.0396518843313860   -4.0082706220935949
 Sr  Co  O  
   6   6  12
Selective dynamics
Direct
 -0.0173405961836401  0.0408657205284624 -0.0003892659699445   T   T   T
  0.4450511470470980  0.6122398025254328  0.8344947273714070   T   T   T
  0.0194666546333448  0.2460747490487751  0.6452676377051353   T   T   T
  0.5166009987642308 -0.0051491156559468  0.4871179587142775   T   T   T
  0.0009979208545541  0.6506448904005694  0.3834877091099160   T   T   T
  0.4377410344316695  0.3489161590674437  0.1694965690362412   T   T   T
  0.5841304965989095  0.8096017977849321  0.1920564290593541   T   T   T
 -0.0848129851795212  0.5083951743008153 -0.0065171079539914   T   T   T
  0.4971228440706860  0.1532843508486250  0.8327538890691132   T   T   T
  0.0651795493147086  0.7896839077068960  0.6923012894208194   T   T   T
  0.4555131808096013  0.4697723022707282  0.4773577308220107   T   T   T
 -0.0544752877305751  0.2224212849482217  0.3179914088962210   T   T   T
  0.6177674227181460  0.6418791917913852  0.0505218416994908   T   T   T
  0.7786283538461695  0.2823911717175541  0.8617187316967311   T   T   T
  0.0487305235140220  0.7249978824428043  0.8844529500322957   T   T   T
  0.2869583783360563  0.2828337377187529  0.9430954092710718   T   T   T
  0.3475082443838955 -0.0140278538025824  0.7165402271084054   T   T   T
  0.8992688756896909  0.9052222776991734  0.5510977418292522   T   T   T
  0.2406478005783565  0.5586715412276413  0.6149704681267174   T   T   T
  0.2485746099544561  0.2492287559431710  0.4015897012739859   T   T   T
  0.4283734398091477  0.6977002578911815  0.3448188036330644   T   T   T
  0.7516435223740422  0.3513680458732384  0.4660325681270723   T   T   T
  0.7272314038967949  0.0534461341651164  0.2169171545639955   T   T   T
  0.0094925129776866  0.4195377235952747  0.1728253553586631   T   T   T
