Sr Co O 
 1.0000000000000000
    -4.0178237537422010    4.1033905391347609    0.1165799150307494
    -0.1218782824126584    4.2297840739880792    7.7800008427074259
     3.9367755858145812    8.1276179976772216    0.0963888238945099
 Sr  Co  O  
   6   6  12
Selective dynamics
Direct
  0.0131722168830743  0.0187894723131644  0.0040275043406075   T   T   T
  0.8243901414497733  0.5231255875002723  0.8033744715192298   T   T   T
  0.6787464580093481 -0.0054434676659094  0.6466195298151499   T   T   T
  0.4643016967062220  0.5007834720890278  0.5363521910021910   T   T   T
  0.3399911339628467 -0.0303183017542548  0.3358147527281791   T   T   T
  0.1800872241784086  0.5181540547936305  0.1981177081169210   T   T   T
  0.7473530037614069  0.2346860579696201  0.2733287845272943   T   T   T
  0.5630804123475385  0.7513611118703258  0.0861930523202047   T   T   T
  0.4191575557370820  0.2788308386015849  0.9544939765572371   T   T   T
  0.2473654044202352  0.8069421931243951  0.7360246622058461   T   T   T
  0.0904273978497367  0.2526585220716177  0.5418966655620298   T   T   T
  0.9222950001523246  0.7471577097363223  0.4241606013954503   T   T   T
  0.8991220864611977 -0.0066251979624753  0.3089029704477361   T   T   T
  0.6121216692528982  0.2990425055539365  0.0605525429538209   T   T   T
  0.4376213361153314  0.7638054002107532  0.9153496252343776   T   T   T
  0.2442532927511462  0.2730266702333782  0.8345965480635673   T   T   T
  0.5664608704360758  0.7857652296467804  0.5693481032797885   T   T   T
  0.0755750361193276  0.7284925039015947  0.6446563762993855   T   T   T
  0.0216054452982253  0.0406689077399103  0.7199318395136660   T   T   T
  0.4486163998458061  0.2744302732224667  0.4464904972017234   T   T   T
  1.0168619900885627  0.2620703639781630  0.3329244083083601   T   T   T
 -0.0812015815746038  0.4938633745439788  0.5259860863594699   T   T   T
  0.2978225545972332  0.7086667896863126  0.2858762092717496   T   T   T
  0.8041064412347310  0.7800659180632475  0.1483142094412803   T   T   T
