Sr Co O 
 1.0000000000000000
    -3.5970953065885634    4.6359082034387349    3.5108623215749182
    -3.5970953065885634   -4.6359082034387340    3.5108623215749173
     3.8713544501213990    0.0000000000000006    7.2905425824445578
 Sr  Co  O  
   6   6  12
Selective dynamics
Direct
  0.0458414663538384 -0.0317059209410919 -0.0216131949552655   T   T   T
  0.1781504198447250  0.1810428112114241  0.3164618451121967   T   T   T
  0.3232963119855922  0.3621244475860800  0.6684575280388181   T   T   T
  0.4682940790589070  0.5458414663538400 -0.0216131949552631   T   T   T
  0.6810428112114216  0.6781504198447270  0.3164618451121989   T   T   T
  0.8621244475860760  0.8232963119855943  0.6684575280388192   T   T   T
  0.1584812238027875  0.6584812238027944  0.3493883520711569   T   T   T
  0.3754117012030868  0.8754117012030935  0.6029560173422818   T   T   T
  0.5657515757444563  0.0657515757444547 -0.0165554406724783   T   T   T
  0.6762680022184790  0.1762680022184797  0.3594576777545065   T   T   T
  0.8267312385192500  0.3267312385192506  0.6683401184311355   T   T   T
 -0.0493414364897185  0.4506585635102853  0.0019484102153649   T   T   T
  0.9933767796468983  0.8796989493880377  0.2971876910186138   T   T   T
  0.4899614972556450 -0.0100385027443576  0.3566438753379040   T   T   T
  0.1516438464687576  0.0500739680704053  0.6471888615162698   T   T   T
  0.3187717462300562  0.2031352964831385 -0.0137640751684661   T   T   T
  0.8661735766610372  0.3661735766610386  0.2395344075354026   T   T   T
  0.3796989493880326  0.4933767796469006  0.2971876910186074   T   T   T
  0.6617486277516194  0.1617486277516195  0.6020781646171834   T   T   T
  0.0185484349961553  0.5185484349961608  0.5670394840693481   T   T   T
  0.5500739680704017  0.6516438464687576  0.6471888615162689   T   T   T
  0.7831088885770300  0.2831088885770301  0.9180783159097798   T   T   T
  0.1383731159419581  0.6383731159419636  0.8965867520821258   T   T   T
  0.7031352964831354  0.8187717462300586 -0.0137640751684651   T   T   T
