Sr Co O 
 1.0000000000000000
    -4.0079470908954118   -0.0000000000000002   -4.0079470908954189
     0.2606590419207209   -7.4036391909283994   -0.2606590419207219
    -4.2503348610848084    4.0935877141105994    8.2582819519802140
 Sr  Co  O  
   6   6  12
Selective dynamics
Direct
 -0.0231725551977301 -0.0092856669977481 -0.0463451103954597   T   T   T
  0.6598713686407608  0.1622007718331734  0.3197427372815308   T   T   T
  0.3343135738956653  0.3369124206448463  0.6686271477913539   T   T   T
  0.0294568386398172  0.5039042398304245  0.0589136772796343   T   T   T
  0.6799836963430674  0.6311933462492619  0.3599673926861451   T   T   T
  0.3222176518175309  0.7946775281201979  0.6444353036350700   T   T   T
  0.4815738100311774  0.7013729705550090 -0.0368523799376393   T   T   T
  0.1595822952116140  0.9983734252150439  0.3191645904232278   T   T   T
  0.8516283541561896  0.1104968671078842  0.7032567083123832   T   T   T
  0.5062435065584373  0.2844200218284022  0.0124870131168776   T   T   T
  0.1613055805096620  0.3539629962853394  0.3226111610193326   T   T   T
  0.8291550189410802  0.5556043130581196  0.6583100378821795   T   T   T
  0.6567963479743489  0.6830846388141915  0.8299390832658927   T   T   T
  0.1827301180445936  0.1996785794664954  0.8456499869447585   T   T   T
  0.7987166197196897  0.2527619681257399  0.5974332394393982   T   T   T
  0.6629198689001731  0.1996785794664976  0.8456499869447577   T   T   T
  0.8418611041974366  0.2834069487515654  0.1658711217735661   T   T   T
  0.5529303410627591  0.6107866821477832  0.1058606821255172   T   T   T
  0.3240100175761235  0.2834069487515622  0.1658711217735651   T   T   T
  0.4700267949412278  0.4598244271145270  0.4784649259783845   T   T   T
  0.1822094595051088  0.7919453578288145  0.3644189190102137   T   T   T
  0.0084381310371429  0.4598244271145252  0.4784649259783844   T   T   T
  0.1731427352915177  0.6830846388141898  0.8299390832658938   T   T   T
  0.8207258919762488  0.8353502341643058  0.6414517839525067   T   T   T
