Sr Co O 
 1.0000000000000000
     4.1548579546575173    0.0514051763326576    3.9603611011664581
     0.0292846574270652   -7.9316541931876188   -0.1348270781947330
     3.9394385053595626   -0.1505984252152480   -7.6956683239027424
 Sr  Co  O  
   6   6  13
Selective dynamics
Direct
  0.0000000000000000 -0.0000000000000000 -0.0000000000000000   T   T   T
  0.3035162028644913 -0.0134243366319014  0.6630926941804268   T   T   T
  0.6964837971355083  0.0134243366319015  0.3369073058195718   T   T   T
 -0.0000000000000000  0.4999999999999992  0.0000000000000000   T   T   T
  0.3427181216402039  0.4693020655098606  0.6748253067677217   T   T   T
  0.6572818783597960  0.5306979344901380  0.3251746932322765   T   T   T
  0.5426363636456134  0.7402879114324110 -0.0197520309199429   T   T   T
  0.7775867061907619  0.7399477326745670  0.6461805052733096   T   T   T
  0.1479108659975471  0.7246792423081587  0.3514412095277333   T   T   T
  0.4573636363543863  0.2597120885675878  0.0197520309199431   T   T   T
  0.8520891340024543  0.2753207576918388  0.6485587904722665   T   T   T
  0.2224132938092360  0.2600522673254327  0.3538194947266878   T   T   T
  0.2235673494817219  0.7886467020913750  0.9048447766316445   T   T   T
  0.6708766455724362  0.8397791504154136  0.8164922663448191   T   T   T
  0.4814031789247398  0.7843859982727830  0.4531858747494539   T   T   T
  0.0002417289395018  0.7792859193308184  0.5173116211416732   T   T   T
  0.8261885328152769  0.7708090395206719  0.1677000890448111   T   T   T
  0.3291233544275642  0.1602208495845856  0.1835077336551795   T   T   T
  0.1738114671847251  0.2291909604793278  0.8322999109551886   T   T   T
  0.4999999999999999  0.4999999999999985  0.0000000000000002   T   T   T
  0.5185968210752606  0.2156140017272144  0.5468141252505446   T   T   T
  0.7872427051508769  0.4982266679356646  0.7054057215532922   T   T   T
 -0.0002417289395011  0.2207140806691806  0.4826883788583236   T   T   T
  0.7764326505182800  0.2113532979086233  0.0951552233683540   T   T   T
  0.2127572948491214  0.5017733320643346  0.2945942784467053   T   T   T
