Sr Co O 
 1.0000000000000000
     3.8351881096801059    0.0000000000000000    0.0000000000000000
     0.0000000000000000    3.7540586097572723    0.0000000000000000
     0.0000000000000000    0.0000000000000000   33.3621107928004150
 Sr  Co  O  
   8   8  20
Selective dynamics
Direct
  0.0000000000000000  0.0000000000000000 -0.0067250135388843   T   T   T
  0.0000000000000000  0.0000000000000000  0.1156956791342562   T   T   T
  0.0000000000000000  0.0000000000000000  0.2638281064742030   T   T   T
  0.0000000000000000  0.0000000000000000  0.3846243450651365   T   T   T
  0.0000000000000000  0.0000000000000000  0.5039958555231615   T   T   T
  0.0000000000000000  0.0000000000000000  0.6246183065008843   T   T   T
  0.0000000000000000  0.0000000000000000  0.7444003074008771   T   T   T
  0.0000000000000000  0.0000000000000000  0.8645697447144431   T   T   T
  0.5000000000000006  0.4999999999999994  0.0598673972192962   T   T   T
  0.5000000000000006  0.4999999999999994  0.1840278347974212   T   T   T
  0.5000000000000006  0.4999999999999994  0.3243250842176796   T   T   T
  0.5000000000000006  0.4999999999999994  0.4446290890327496   T   T   T
  0.5000000000000006  0.4999999999999994  0.5644388440975643   T   T   T
  0.5000000000000006  0.4999999999999994  0.6840252230130967   T   T   T
  0.5000000000000006  0.4999999999999994  0.8038186250254312   T   T   T
  0.5000000000000006  0.4999999999999994  0.9338366386479926   T   T   T
  0.0000000000000000  0.4999999999999994  0.0625167762340096   T   T   T
  0.5000000000000006  0.0000000000000000  0.1584726412594347   T   T   T
  0.5000000000000006  0.4999999999999994  0.2372875541607714   T   T   T
  0.0000000000000000  0.4999999999999994  0.3140530346290785   T   T   T
  0.5000000000000006  0.0000000000000000  0.3127349603672731   T   T   T
  0.5000000000000006  0.4999999999999994  0.3786290628158379   T   T   T
  0.0000000000000000  0.4999999999999994  0.4399979016493681   T   T   T
  0.5000000000000006  0.0000000000000000  0.4400280898294622   T   T   T
  0.5000000000000006  0.4999999999999994  0.5018825520142166   T   T   T
  0.0000000000000000  0.4999999999999994  0.5638711156648641   T   T   T
  0.5000000000000006  0.0000000000000000  0.5638814151627366   T   T   T
  0.5000000000000006  0.4999999999999994  0.6257869610573302   T   T   T
  0.0000000000000000  0.4999999999999994  0.6874176731656125   T   T   T
  0.5000000000000006  0.0000000000000000  0.6874379701404532   T   T   T
  0.5000000000000006  0.4999999999999994  0.7487930798232588   T   T   T
  0.0000000000000000  0.4999999999999994  0.8119694290173226   T   T   T
  0.5000000000000006  0.0000000000000000  0.8128560880962677   T   T   T
  0.5000000000000006  0.4999999999999994  0.8805212715652687   T   T   T
  0.0000000000000000  0.4999999999999994  0.9481222031236387   T   T   T
  0.5000000000000006  0.0000000000000000  0.9547641469236899   T   T   T
