Sr Co O 
 1.0000000000000000
    -3.8800877230013429   -0.0350865934103110   -4.1638985145288725
    -0.0497743811535365   -7.6297705004512597   -0.0083300636903838
    -3.7392810128947991    3.8048686842696058    8.2247237093507337
 Sr  Co  O  
   6   6  12
Selective dynamics
Direct
 -0.0082877440477580  0.0036025658714862  0.0147109980466274   T   T   T
  0.7052572914797485  0.1820375031880542  0.3340962186881167   T   T   T
  0.3240305376926738  0.3018478878503623  0.6310890487494137   T   T   T
 -0.0006432949762230  0.4763638959505023  0.0086445545271283   T   T   T
  0.7219782624557805  0.6389202874592660  0.3351403928859408   T   T   T
  0.3303074605972953  0.7875914840519229  0.6385831146488906   T   T   T
  0.4469475140440602  0.6988499333228905 -0.0427008065661675   T   T   T
  0.2549050096840139  0.8856263843711546  0.3014307654111467   T   T   T
  0.8202455391809497  0.0590305353073207  0.6735537886235931   T   T   T
  0.5038111813409372  0.2660906523482442 -0.0065427769540164   T   T   T
  0.2044253086344934  0.3947817160071456  0.3219158834624228   T   T   T
  0.8529143896083917  0.6022223560860456  0.6840722677252448   T   T   T
  0.7116180208124079  0.6720639771157455  0.8612259792304831   T   T   T
  0.4767029842727982  0.8340315935359059  0.1826567409530778   T   T   T
  0.1561489589094146  0.1197086951489514  0.3234000621905325   T   T   T
 -0.0232221520169688 -0.0040406086560694  0.5412900513646688   T   T   T
  0.8340049360236456  0.3223850070518690  0.1584888449462530   T   T   T
  0.3261174721368472  0.4281464605340893 -0.1005586114623105   T   T   T
  0.3340796526218378  0.2805167735385997  0.1344412085654314   T   T   T
  0.5318005180645512  0.4764636566781607  0.5170693192964373   T   T   T
  0.1810607609132114  0.6687483124710425  0.3236722997715570   T   T   T
  0.0054077095047847  0.4976671701694290  0.5277823280816976   T   T   T
  0.1554793806083751  0.7830345083460388  0.8292417399619643   T   T   T
  0.6549102510683051  1.1243093130594042  0.8072966342605986   T   T   T
