Sr Co O 
 1.0000000000000000
    -3.9272261904298267    4.0333262689420657   -0.0678368497965976
     0.0524556186950433    3.9490823957560677    8.0302656568087105
     3.7158310590503065    7.8505139078497246    0.0511336577459040
 Sr  Co  O  
   6   6  13
Selective dynamics
Direct
  0.0134249449280409 -0.0276074750796970 -0.0003550093675416   T   T   T
  0.8341521954676623  0.5144022068863066  0.8204852431692494   T   T   T
  0.6954670106518955 -0.0327599339720909  0.6866540723929420   T   T   T
  0.4644631554546355  0.5235109221156722  0.5047285304426199   T   T   T
  0.3320726901390861 -0.0214683638628128  0.3359063176804872   T   T   T
  0.1516641126515885  0.5209102691213677  0.1739194117268582   T   T   T
  0.7479124208999678  0.2093036948894983  0.3176343642607238   T   T   T
  0.5779303374293290  0.7611609373686563  0.0810779853534098   T   T   T
  0.3839826655548362  0.2544946994907795  0.8933826423478340   T   T   T
  0.2389957098541239  0.7508046327071769  0.7613295491237948   T   T   T
  0.1216311952755690  0.2532638358455571  0.5623252372572246   T   T   T
  0.9169215418572768  0.7425443046040452  0.4116770174917652   T   T   T
  0.7993274602569453 -0.0066786552979673  0.3249000870822804   T   T   T
  0.9114131085024937  0.7233120149443045  0.9463256041130299   T   T   T
  0.4591934272746948  0.7430955123507859  0.9035126626116842   T   T   T
  0.5463263327746527  0.0395061827573288 -0.0224846185416780   T   T   T
  0.1342341416682973  0.2508759595367355  0.7955099081754256   T   T   T
  0.3764106325872257  0.4735616837999181  0.8501167900711475   T   T   T
  0.0777418359753139  0.7468687213817875  0.5866821117393489   T   T   T
  0.2100162368416738 -0.0017654907099794  0.6513426002940038   T   T   T
  0.4407476295230118  0.3416874730915512  0.3699694042090668   T   T   T
  1.0199524480030286  0.2464309297549045  0.3573814816769077   T   T   T
 -0.0796517653143543  0.5033255507884939  0.5247568626622626   T   T   T
  0.2513990239090409  0.7556020400384231  0.2278757563467213   T   T   T
  0.7076047558864825  0.7356184670942560  0.2686791748070713   T   T   T
