Sr Co O 
 1.0000000000000000
    -4.0407848404898221    4.2217150994145278    4.0620413692475346
    -3.9961154637383656   -4.2312882714920947    4.0890237119786130
     3.5149557005498102   -0.0642096801707881    7.6455579510328420
 Sr  Co  O  
   6   6  13
Selective dynamics
Direct
  0.0048239806980373 -0.0068504306484358  0.0154424489491126   T   T   T
  0.1636190175181940  0.1675624664506564  0.3239923892426845   T   T   T
  0.3188574533581376  0.3099683290839287  0.6828722731778518   T   T   T
  0.4778416422315907  0.4588056085278608 -0.0276481026085809   T   T   T
  0.6974901073984137  0.6940377993797563  0.3657860119298273   T   T   T
  0.8470323412517800  0.8658965154355751  0.6585817093073942   T   T   T
  0.2418263884226932  0.6824996128789214  0.3158917314400351   T   T   T
  0.3532729562855295  0.8632780511130702  0.6757915916433326   T   T   T
  0.5420008235741069 -0.0701094696723383  0.0005830120375310   T   T   T
  0.6384784817716125  0.2370413125228793  0.3475994403046494   T   T   T
  0.8399652380340273  0.2982648628053876  0.6750642600954793   T   T   T
 -0.0675240963038866  0.4765267029100284 -0.0147845104641821   T   T   T
  0.4099272535504883  0.8711623152396815  0.2380378321282787   T   T   T
  0.5483474798153998  0.0057464377958025  0.5213140737888211   T   T   T
  0.1014881081334774  0.0514296985561882  0.6667623975211890   T   T   T
  0.3678733895391174  0.8386522472896307  0.9058849929199173   T   T   T
  0.6359338606741524  0.1537293584760075  0.8290459829533690   T   T   T
  0.7646308752858927  0.2888372638363976  0.1113175046512581   T   T   T
  0.3554711954962541  0.4088915998664813  0.3341813661619685   T   T   T
  0.8118624990363057  0.3207300217737294  0.4464029495145796   T   T   T
 -0.0123305980077642  0.8503099335614377  0.3409674462003097   T   T   T
  0.4437773209518015  0.6065417373478525  0.6507924737224229   T   T   T
  0.9260534889440791  0.4903305941141098  0.7459921985569495   T   T   T
  0.1867528810074879  0.3107901552072219  1.0062029829845860   T   T   T
  0.8191947158774563  0.7425939790582271  0.0172588328868798   T   T   T
