Sr Co O 
 1.0000000000000000
    -3.9812298651599463    0.0273087608048732   -3.9289330717620130
     0.0326821092507145   -8.2097426279876391    0.0231606558622766
    -3.8338096053611599    4.0990904082517314    7.6818842954207138
 Sr  Co  O  
   6   6  13
Selective dynamics
Direct
  0.0201777592233168 -0.0205868399863801 -0.0273055778635224   T   T   T
  0.6410179879879799  0.1930584553470824  0.3420780874275861   T   T   T
  0.3366628711874244  0.3695986321206756  0.6805435976831749   T   T   T
  0.0170941150025842  0.5409594771534250  0.0055287091004095   T   T   T
  0.6920786573625726  0.6693001771219617  0.3586684591546681   T   T   T
  0.3284753552919065  0.7799005111739162  0.6403637274185768   T   T   T
  0.4895154717334590  0.7445750105465084  0.0078382915862712   T   T   T
  0.1926522050207552  0.9110592686588741  0.3530246015900224   T   T   T
  0.8088665733645548  0.0731065014679260  0.6195092553597923   T   T   T
  0.5501465782527928  0.3052451199761431  0.0530832852674881   T   T   T
  0.1361267484856456  0.4059695744485742  0.3070586851930492   T   T   T
  0.8393627308950726  0.5761858150787403  0.6714547844734960   T   T   T
  0.7009179036690270  0.7110256092758640  0.8688291485625275   T   T   T
  0.3222785641841689  0.8822502815660360  0.1706790303545523   T   T   T
  0.4485501488485979  0.0490742838024169  0.5678153401459276   T   T   T
 -0.1098752836695476 -0.0200659922705782  0.4119948207657665   T   T   T
  0.8932033945859980  0.3204515105589834  0.7104703269455412   T   T   T
  0.8185633033997278  0.2137971016616337  0.1389905251405466   T   T   T
  0.5435868169650805  0.5008405598431056  0.0065860828838409   T   T   T
  0.3003674519843011  0.2795675134070164  0.1373153873014763   T   T   T
  0.5051451647645284  0.4902752738183530  0.5141774406867924   T   T   T
  0.1490214202010645  0.6540489560112430  0.3156593624710808   T   T   T
 -0.0167647767215363  0.4776844547449279  0.4867450385434676   T   T   T
  0.1752269179320626  0.6761968995292970  0.8234664665591374   T   T   T
  0.8842686965009332  0.8831484484787258  0.6687584584387054   T   T   T
