Sr Co O 
 1.0000000000000000
    -3.9969194085581408    4.3409528555039243   -0.0517826575958431
     0.0495289277800423    4.2817478476244544    7.5621283982566840
     3.7765394973970774    8.4656481171811091    0.0793823936432402
 Sr  Co  O  
   6   6  13
Selective dynamics
Direct
  0.0173013990036093 -0.0311228487629684 -0.0081925590048631   T   T   T
  0.8071097358956780  0.5257053515352823  0.8290971354715898   T   T   T
  0.7184641565522855 -0.0029354258491067  0.6693389202917446   T   T   T
  0.5482622144036901  0.4993566619149279  0.4801742518971543   T   T   T
  0.3460094277628226 -0.0032256842762295  0.3729955467131698   T   T   T
  0.1464747882687428  0.5170235070699848  0.1724308438074051   T   T   T
  0.7788280260547015  0.2059707953271411  0.2743290321241177   T   T   T
  0.5632307340828050  0.7602424086871822  0.0751552550312621   T   T   T
  0.2891442934383757  0.2965376423904965  0.9015644466383961   T   T   T
  0.2401630144059171  0.7419222983062385  0.7722539321774565   T   T   T
  0.1562377291408160  0.2614185361767238  0.5706315534146734   T   T   T
  0.9936717851222246  0.7345670206448438  0.4322422868540768   T   T   T
  0.7580607463733645 -0.0414931879976440  0.4116107767531840   T   T   T
 -0.0335488450148298  0.2377805131294861  0.0453183449280704   T   T   T
  0.8907357598288508  0.7217652513872574  0.9435622811018586   T   T   T
  0.4474065892078334  0.7750842255961385  0.9005796332710246   T   T   T
  0.3628610749895415  0.2375402694564769  0.7178551299766123   T   T   T
  0.3885261032601734  0.4767009759544353  0.8937250110787387   T   T   T
  0.1713227249383442  0.7217088724007695  0.5863642140447103   T   T   T
  0.1281441598746569  0.0126458792798179  0.6763018664779876   T   T   T
  0.4331317505174951  0.3019478803344806  0.3434419394831147   T   T   T
  0.9301221337022980  0.2658413042947712  0.3766939409121359   T   T   T
 -0.0767658068696284  0.4958643804816890  0.5455949357441580   T   T   T
  0.2382374216444980  0.7575851354682668  0.2125576933837278   T   T   T
  0.6735358097638349  0.7815680274192205  0.2210402574031460   T   T   T
