Sr Co O 
 1.0000000000000000
    -3.6683065430849395    4.0627248823980722    3.9320124230192048
    -3.6683065430849395   -4.0627248823980722    3.9320124230192048
     3.6875874535122239   -0.0000000000000000    7.8837066335512178
 Sr  Co  O  
   6   6  14
Selective dynamics
Direct
 -0.0001430059294398  0.0129779080322759 -0.0085495338714671   T   T   T
  0.1717018901953938  0.1497065183369841  0.3382232569319336   T   T   T
  0.3374600502043598  0.3227643156963906  0.6666317733979571   T   T   T
  0.5129779080322763  0.4998569940705604 -0.0085495338714676   T   T   T
  0.6497065183369845  0.6717018901953936  0.3382232569319329   T   T   T
  0.8227643156963912  0.8374600502043598  0.6666317733979580   T   T   T
  0.1645640737008141  0.6645640737008144  0.3516879174573456   T   T   T
  0.3318034252569203  0.8318034252569205  0.6754526620177046   T   T   T
  0.5063361369332122  0.0063361369332121 -0.0039937417073758   T   T   T
  0.6683636396753689  0.1683636396753687  0.3283808828409119   T   T   T
  0.8324819048201075  0.3324819048201069  0.6626371458547087   T   T   T
 -0.0035707490761369  0.4964292509238638 -0.0123206527716250   T   T   T
  0.9412635388096190  0.8704892747381089  0.3088990623652720   T   T   T
  0.2276812329098261  0.7276812329098263  0.5235396654533474   T   T   T
  0.4925048702196702 -0.0074951297803305  0.4860316230396885   T   T   T
  0.0587796242900756  0.1070715714605954  0.6652075703919166   T   T   T
  0.4384490596159119  0.9384490596159121  0.8320708459271359   T   T   T
  0.2697171409361471  0.2295573243596262  0.0029159702566132   T   T   T
  0.5955891473630944  0.0955891473630941  0.1386331238510178   T   T   T
  0.8548614392217561  0.3548614392217556  0.1870309000226623   T   T   T
  0.3704892747381087  0.4412635388096182  0.3088990623652725   T   T   T
  0.7441970144033920  0.2441970144033914  0.5175741871699771   T   T   T
  0.6070715714605959  0.5587796242900754  0.6652075703919164   T   T   T
  0.9141201767324111  0.4141201767324104  0.8196960446738285   T   T   T
  0.1779391166566576  0.6779391166566576  0.8802566155408369   T   T   T
  0.7295573243596261  0.7697171409361466  0.0029159702566136   T   T   T
