Sr Co O 
 1.0000000000000000
     3.9254746845394441   -0.0000000000000000    3.9254746845394513
     0.0000000000000000   -7.5954733240877532    0.0000000000000000
     3.9128174590094584    0.0000000000000000   -7.8382921435489123
 Sr  Co  O  
   6   6  12
Selective dynamics
Direct
 -0.0539370256007168  0.0000000000000000  0.0000000000000000   T   T   T
  0.3527235600810633  0.0012244667018884  0.6622281983753316   T   T   T
  0.6904953617057314 -0.0012244667018884  0.3377718016246687   T   T   T
 -0.0539370256007168  0.5000000000000001  0.0000000000000000   T   T   T
  0.3527235600810633  0.4987755332981114  0.6622281983753316   T   T   T
  0.6904953617057314  0.5012244667018885  0.3377718016246687   T   T   T
  0.4937305138508778  0.7500000000000002  0.0101026044800585   T   T   T
  0.8095555928992330  0.7500000000000002  0.6683217991147893   T   T   T
  0.1928856126744408  0.7500000000000002  0.3269164265639281   T   T   T
  0.4836279093708191  0.2500000000000001 -0.0101026044800585   T   T   T
  0.8659691861105125  0.2500000000000001  0.6730835734360718   T   T   T
  0.1412337937844436  0.2500000000000001  0.3316782008852115   T   T   T
  0.3924282912818450 -0.0000000000000000  0.0000000000000003   T   T   T
  0.6438526568264358  0.7500000000000002  0.8367420859317545   T   T   T
  0.5261195272679468  0.7500000000000002  0.4679752900130211   T   T   T
  0.8959549328992095 -0.0046372241657631  0.6752508924254476   T   T   T
  0.8381966915403725  0.7500000000000002  0.1953612737087524   T   T   T
  0.2207040404737615  0.0046372241657631  0.3247491075745523   T   T   T
  0.3924282912818450  0.5000000000000001  0.0000000000000003   T   T   T
  0.6428354178316191  0.2500000000000001  0.8046387262912478   T   T   T
  0.8959549328992092  0.5046372241657632  0.6752508924254474   T   T   T
  0.0581442372549265  0.2500000000000001  0.5320247099869788   T   T   T
  0.8071105708946811  0.2500000000000001  0.1632579140682455   T   T   T
  0.2207040404737615  0.4953627758342370  0.3247491075745523   T   T   T
