Sr Co O 
 1.0000000000000000
    -4.1741529486568938    3.9354882139100673    4.0845538703616180
    -4.0795043936318187   -3.7418760226106094    3.9794108656714284
     4.1117799885873616    0.0588801737817055    8.0439556453871308
 Sr  Co  O  
   6   6  12
Selective dynamics
Direct
  0.0241066032964126  0.0244721711417751 -0.0501945881009642   T   T   T
  0.1755791117506825  0.1154776656560550  0.3411488688865530   T   T   T
  0.3075179538388791  0.3640022435869496  0.6622821219257199   T   T   T
  0.4772979831130293  0.5205352092456115 -0.0308351084262634   T   T   T
  0.6789768526928475  0.6874344433005353  0.3532145391998106   T   T   T
  0.8283481922117472  0.7848572753183881  0.7064261051240610   T   T   T
  0.1887725559126792  0.6346013285496568  0.3211904149864959   T   T   T
  0.3200986147755598  0.8193180184389401  0.6511335349275230   T   T   T
  0.4999299957787813 -0.0698677552152936  0.0182107050643302   T   T   T
  0.6403640984273273  0.1673618929006165  0.3976744464320794   T   T   T
  0.8425156641443972  0.3396132311290870  0.6111147555724188   T   T   T
 -0.0088297149105744  0.5454376291279364  0.0265016294556480   T   T   T
  0.1786338389563130  0.4670882610583793  0.1771488928274015   T   T   T
  0.2652612560348476  0.8637832762847778  0.1470260910987919   T   T   T
  0.3128509736796629  0.7015839127138600  0.4575294484041323   T   T   T
  0.4717451539798688  0.0227909195444182  0.4761658652525976   T   T   T
  0.0284786571529397  0.0571600494037498  0.6630455637207879   T   T   T
  0.4301964360304324  0.9813326679124752  0.8246126215125559   T   T   T
  0.8064273539047413  0.3029798963813144  0.3880135508769197   T   T   T
 -0.0035809364936821  0.5459135470608335  0.5058294451470459   T   T   T
  0.5796511473695263  0.5430885838940840  0.6825685295815842   T   T   T
  0.8647625526144490  0.4200253045655452  0.9307141279490428   T   T   T
  0.1663663821224254  0.6497677216276929  0.8337657354591201   T   T   T
  0.7578626217636345  0.8445759314818153  0.0723794060782030   T   T   T
