Sr Co O 
 1.0000000000000000
     3.6608628572666304    0.0000000000000000    0.0000000000000000
     0.0000000000000000    8.1061363789520620    0.0000000000000000
     0.0000000000000000    0.0000000000000000   11.8347629718052296
 Sr  Co  O  
   6   6  13
Selective dynamics
Direct
 -0.0000000000000000 -0.0098638016699798 -0.0078081012862462   T   T   T
  0.0000000000000000 -0.0072458713303240  0.3334207771209283   T   T   T
  0.0000000000000000 -0.0022614935860402  0.6755245348912234   T   T   T
  0.0000000000000000  0.5098638016699805 -0.0078081012862462   T   T   T
 -0.0000000000000000  0.5072458713303246  0.3334207771209283   T   T   T
 -0.0000000000000000  0.5022614935860402  0.6755245348912234   T   T   T
  0.5000000000000003  0.2500000000000001  0.1803550239013578   T   T   T
  0.5000000000000003  0.2500000000000001  0.5022064655532500   T   T   T
  0.5000000000000003  0.2500000000000001  0.8295526345237233   T   T   T
  0.5000000000000003  0.7500000000000000  0.1716300101610652   T   T   T
  0.5000000000000003  0.7500000000000000  0.4991141516680147   T   T   T
  0.5000000000000003  0.7500000000000000  0.8229866751323909   T   T   T
  0.5000000000000003  0.0331259146171209  0.1445937811695621   T   T   T
  0.5000000000000003  0.2500000000000001  0.3425914444016219   T   T   T
  0.5000000000000003 -0.0010169424096050  0.4971578101391019   T   T   T
  0.5000000000000003  0.2500000000000001  0.6588618140612172   T   T   T
  0.0000000000000000  0.2500000000000001  0.8830563948516587   T   T   T
  0.5000000000000003 -0.0096845486787762  0.8377030085921610   T   T   T
  0.0000000000000000  0.7500000000000000  0.1300948630520218   T   T   T
  0.5000000000000003  0.4668740853828794  0.1445937811695621   T   T   T
  0.5000000000000003  0.7500000000000000  0.3404633479141146   T   T   T
  0.5000000000000003  0.5010169424096054  0.4971578101391019   T   T   T
  0.5000000000000003  0.7500000000000000  0.6538710795893463   T   T   T
  0.0000000000000000  0.7500000000000000  0.8573658023849113   T   T   T
  0.5000000000000003  0.5096845486787768  0.8377030085921610   T   T   T
