Sr Co O 
 1.0000000000000000
     3.9273792877704334    0.0000000000000000    3.9615452303265499
    -0.0000000000000000   -8.0399311420078927    0.0000000000000000
     3.8586089298149777    0.0000000000000000   -7.8540920485715677
 Sr  Co  O  
   6   6  12
Selective dynamics
Direct
 -0.0000000000000000  0.0055004122776640  0.0000000000000000   T   T   T
  0.3208144757978529 -0.0102264073655080  0.6381351740369001   T   T   T
  0.6791855242021447 -0.0102264073655080  0.3618648259631014   T   T   T
  0.0000000000000000  0.5271668463196091 -0.0000000000000000   T   T   T
  0.3200012661160703  0.5151226489929877  0.6389543643875961   T   T   T
  0.6799987338839265  0.5151226489929877  0.3610456356124046   T   T   T
  0.4999999999999993  0.7373606721669327  0.0000000000000004   T   T   T
  0.8140958579428345  0.7605862968994883  0.6714009900712741   T   T   T
  0.1859041420571640  0.7605862968994883  0.3285990099287278   T   T   T
  0.4999999999999993  0.2691333724905417  0.0000000000000004   T   T   T
  0.8995380862260203  0.2503005277984494  0.6887114238047982   T   T   T
  0.1004619137739772  0.2503005277984494  0.3112885761952031   T   T   T
  0.3021535248663255  0.7818996365280473  0.1244941174747536   T   T   T
  0.6978464751336730  0.7818996365280473  0.8755058825252483   T   T   T
  0.4999999999999990  0.7291127027667930  0.5000000000000008   T   T   T
  0.7731616977037999  0.0246709384702276  0.6651376609171549   T   T   T
 -0.0000000000000003  0.7514703774843181  0.5000000000000003   T   T   T
  0.2268383022961974  0.0246709384702276  0.3348623390828470   T   T   T
  0.2258296661550860  0.1703509151570049  0.8549248152348532   T   T   T
  0.4999999999999993  0.5003873606112165  0.0000000000000004   T   T   T
  0.8145597331957218  0.4808644960203231  0.7046776332761476   T   T   T
 -0.0000000000000003  0.2827301518666330  0.5000000000000003   T   T   T
  0.7741703338449104  0.1703509151570049  0.1450751847651474   T   T   T
  0.1854402668042750  0.4808644960203231  0.2953223667238531   T   T   T
