Sr Co O 
 1.0000000000000000
    -3.6752256662312721    0.0000000000000000    0.0000000000000000
    -0.0000000000000000    3.9717235870792207    3.9717235870792225
     0.0000000000000000   15.9184410948205084  -15.9184410948205102
 Sr  Co  O  
   8   8  21
Selective dynamics
Direct
 -0.0000000000000000 -0.0000000000000000 -0.0004281806640091   T   T   T
  0.0000000000000000  0.4999999999999999  0.8745895771757490   T   T   T
  0.0000000000000000  0.0000000000000000  0.7500000000000001   T   T   T
  0.0000000000000000  0.4999999999999995  0.6254104228242502   T   T   T
 -0.0000000000000000  0.0000000000000007  0.5004281806640090   T   T   T
 -0.0000000000000000  0.5000000000000004  0.3704259829379754   T   T   T
 -0.0000000000000000  0.0000000000000002  0.2500000000000000   T   T   T
 -0.0000000000000000  0.5000000000000000  0.1295740170620245   T   T   T
  0.5000000000000001  0.5000000000000001 -0.0006518958840966   T   T   T
  0.5000000000000001  0.0000000000000013  0.8746605380944459   T   T   T
  0.5000000000000001  0.4999999999999999  0.7500000000000000   T   T   T
  0.5000000000000001  0.0000000000000027  0.6253394619055542   T   T   T
  0.5000000000000001  0.5000000000000024  0.5006518958840966   T   T   T
  0.5000000000000001  0.0000000000000002  0.3741526010716367   T   T   T
  0.5000000000000001  0.4999999999999999  0.2499999999999998   T   T   T
  0.5000000000000001  0.0000000000000002  0.1258473989283633   T   T   T
  0.5000000000000001  0.2693064782977269  0.0549415812630005   T   T   T
  0.5000000000000001  0.2703273200092198  0.9407517974818728   T   T   T
  0.5000000000000001  0.7296726799907806  0.9407517974818715   T   T   T
  0.0000000000000000  0.0000000000000009  0.8743762270814568   T   T   T
  0.5000000000000001  0.7314238561075053  0.8075602214895228   T   T   T
  0.5000000000000001  0.2685761438924960  0.8075602214895226   T   T   T
  0.5000000000000001  0.2685761438924964  0.6924397785104769   T   T   T
  0.5000000000000001  0.7314238561075030  0.6924397785104767   T   T   T
  0.0000000000000000  0.0000000000000022  0.6256237729185434   T   T   T
  0.5000000000000001  0.7296726799907821  0.5592482025181277   T   T   T
  0.5000000000000001  0.2703273200092187  0.5592482025181273   T   T   T
  0.5000000000000001  0.2693064782977269  0.4450584187369993   T   T   T
  0.5000000000000001  0.7306935217022716  0.4450584187369989   T   T   T
  0.0000000000000000  0.0000000000000002  0.3820840705505703   T   T   T
  0.5000000000000001  0.7502945112968979  0.3143806238600938   T   T   T
  0.5000000000000001  0.2497054887031022  0.3143806238600936   T   T   T
  0.0000000000000000  0.4999999999999999  0.2499999999999998   T   T   T
  0.5000000000000001  0.2497054887031028  0.1856193761399063   T   T   T
  0.5000000000000001  0.7502945112968973  0.1856193761399062   T   T   T
  0.0000000000000000  0.0000000000000002  0.1179159294494295   T   T   T
  0.5000000000000001  0.7306935217022733  0.0549415812630006   T   T   T
