Sr Co O 
 1.0000000000000000
     3.8651041445422867    0.0322697856260930    3.9434365140205854
    -3.8868043424437175    3.8941625704429370    3.9973540537273378
    -3.9836256635235956   -7.9392970359884361    0.0539395013273859
 Sr  Co  O  
   5   5  13
Selective dynamics
Direct
 -0.0115576483777329  0.0257160593149659  0.0119493621694884   T   T   T
  0.6202792383818907  0.4324988355780320  0.2249797072586322   T   T   T
  0.2055110800848496  0.7978789073949569  0.4012300911471864   T   T   T
  0.7943056775302353  0.1912760646948376  0.5682532625606842   T   T   T
  0.4042642376460265  0.5644160635040917  0.7878451141539516   T   T   T
  0.3971643104047671  0.0668186040732959  0.7729593870935750   T   T   T
  0.0142580900922133  0.5470048965621772  0.0168549756927779   T   T   T
  0.6053646236435403  0.9042741619407768  0.2076311676581971   T   T   T
  0.2049446857926885  0.3022335731690607  0.3940426534981899   T   T   T
  0.8080096503740902  0.6953538336450109  0.6101122845636107   T   T   T
  0.1043324092195146  0.9295053621917803  0.7464129553445886   T   T   T
  0.5915199820092745  0.2627646367901112  0.9351795943328651   T   T   T
  0.7971151650365220  0.7469763429777208  0.0927703681376593   T   T   T
  0.1057568173447439  0.4207521275297178  0.1781315169669029   T   T   T
  0.3177457584239707  0.7135441879000769  0.0703517486607447   T   T   T
  0.4032371507181425  0.1041418635083410  0.2570442241465951   T   T   T
  0.6928179909013101  0.8162471111268225  0.4104670736048943   T   T   T
  0.9076465177255884  0.1287556886322777  0.2966872915315689   T   T   T
  0.0124165845896498  0.5298497773545678  0.5113537243001476   T   T   T
  0.3089240744050903  0.1737216846081750  0.5890140088977168   T   T   T
  0.4913865813272870  0.4795470284259457  0.4885088857494324   T   T   T
  0.6115212392676157  0.8534475246561579  0.7286094504075818   T   T   T
  0.9130359114565693  0.5132757521115077  0.7996112037310161   T   T   T
