Sr Co O 
 1.0000000000000000
     3.7784357110948470    0.0000000000000000    0.0000000000000000
     0.0000000000000000    3.8117213147564115    0.0000000000000000
     0.0000000000000000    0.0000000000000000   28.9853132433238017
 Sr  Co  O  
   7   7  18
Selective dynamics
Direct
  0.0000000000000000  0.0000000000000000 -0.0094672788469882   T   T   T
  0.0000000000000000  0.0000000000000000  0.1557735972493239   T   T   T
  0.0000000000000000  0.0000000000000000  0.2843564391919963   T   T   T
  0.0000000000000000  0.0000000000000000  0.4365186442119276   T   T   T
  0.0000000000000000  0.0000000000000000  0.5743222160905352   T   T   T
  0.0000000000000000  0.0000000000000000  0.7120418311597292   T   T   T
  0.0000000000000000  0.0000000000000000  0.8483767171750602   T   T   T
  0.5000000000000007  0.4999999999999998  0.0740810301685604   T   T   T
  0.5000000000000007  0.4999999999999998  0.2194252642637461   T   T   T
  0.5000000000000007  0.4999999999999998  0.3578633835579357   T   T   T
  0.5000000000000007  0.4999999999999998  0.5065363142593986   T   T   T
  0.5000000000000007  0.4999999999999998  0.6436640254699603   T   T   T
  0.5000000000000007  0.4999999999999998  0.7810332391860587   T   T   T
  0.5000000000000007  0.4999999999999998  0.9210014939223848   T   T   T
  0.5000000000000007  0.0000000000000000  0.0526106899756511   T   T   T
  0.5000000000000007  0.4999999999999998  0.1372640319743116   T   T   T
  0.0000000000000000  0.4999999999999998  0.2174275872539111   T   T   T
  0.5000000000000007  0.0000000000000000  0.2166888113293776   T   T   T
  0.5000000000000007  0.4999999999999998  0.2940651835580310   T   T   T
  0.5000000000000007  0.0000000000000000  0.3559853527294222   T   T   T
  0.5000000000000007  0.4999999999999998  0.4192448446263680   T   T   T
  0.0000000000000000  0.4999999999999998  0.4975580615205898   T   T   T
  0.5000000000000007  0.0000000000000000  0.4982839215302035   T   T   T
  0.5000000000000007  0.4999999999999998  0.5707330795619341   T   T   T
  0.0000000000000000  0.4999999999999998  0.6421774102469753   T   T   T
  0.5000000000000007  0.0000000000000000  0.6421622263224125   T   T   T
  0.5000000000000007  0.4999999999999998  0.7139388050465733   T   T   T
  0.0000000000000000  0.4999999999999998  0.7862451476646179   T   T   T
  0.5000000000000007  0.0000000000000000  0.7859643719978382   T   T   T
  0.5000000000000007  0.4999999999999998  0.8587074808878377   T   T   T
  0.0000000000000000  0.4999999999999998  0.9431100587797265   T   T   T
  0.5000000000000007  0.0000000000000000  0.9337345831118563   T   T   T
