Sr Co O 
 1.0000000000000000
    -3.6169593824535688    3.5589203876326834    4.5712181925757847
    -3.5552942850318114   -3.5114941448797428    4.5927756660870509
     3.7019663081098293   -0.0422960104838528    9.2747222128073297
 Sr  Co  O  
   6   6  12
Selective dynamics
Direct
 -0.0030433526715641  0.0166691094221808 -0.0146697382646348   T   T   T
  0.1633972345225441  0.1669582814428935  0.3154573736845868   T   T   T
  0.3629399698949972  0.3922574868647458  0.6850817650340334   T   T   T
  0.4882316690004795  0.5145002721041987 -0.0176055246906387   T   T   T
  0.6810169433634448  0.6909988132001850  0.3268603169246595   T   T   T
  0.8502155367602564  0.8778478273551362  0.6710228296341577   T   T   T
  0.2036119552140581  0.5777237241615475  0.3683332008926096   T   T   T
  0.3592394999319771  0.9123862289532187  0.6596055214688997   T   T   T
  0.4937571502908044  0.0008065396086833 -0.0170289354557116   T   T   T
  0.6258185158173590  0.2131002702680827  0.3381404750467701   T   T   T
  0.8684792346314669  0.3939419485291165  0.6655042332812688   T   T   T
 -0.0196326600382922  0.5163568452789592 -0.0174614964737596   T   T   T
  0.1143250548301635  0.6068478758266360  0.2073889516854104   T   T   T
  0.2438262768292886  0.7409392605088965  0.4571425761411675   T   T   T
  0.4227893751799693  0.9547607568690699  0.8214586104106839   T   T   T
  0.6860610921234574  0.1950728060188159  0.8242067154426200   T   T   T
  0.1847746457646249  0.2031621941316825  0.0606819738481923   T   T   T
  0.5972571360130913  0.1279875829348965  0.2012641581220190   T   T   T
  0.7330408831998114  0.2592741176843403  0.4554087122459408   T   T   T
  0.1864887396093530  0.2465131142473530  0.5397358818052771   T   T   T
  0.6618089456163779  0.7024963459274896  0.5754851860510485   T   T   T
  0.9261320622396355  0.4486507847928118  0.8242336672053407   T   T   T
  0.1658087270513206  0.7203039706608008  0.8211492056972035   T   T   T
  0.6703220357642169  0.6871104706395086  0.0819376094007085   T   T   T
