Sr Co O 
 1.0000000000000000
     4.0353511691333752    0.0498717206099634    4.1021204005438134
    -0.0861111075776306   -7.5342402834550697   -0.0112132983702549
     3.9412557660349887    0.0240760101593718   -8.1096057982266441
 Sr  Co  O  
   6   6  13
Selective dynamics
Direct
  0.0100609849664045 -0.0121902394295333  0.0324187570000340   T   T   T
  0.3351344847730000 -0.0180226375067955  0.6529797172500508   T   T   T
  0.6141711519349049  0.0004359933291249  0.3090738481375658   T   T   T
  0.0251097175700364  0.4850404410041526  0.0342746685059981   T   T   T
  0.3458931726538104  0.5020518003607221  0.6441137002779099   T   T   T
  0.6450570153189865  0.5180462467066717  0.3312792692863319   T   T   T
  0.5381266075442803  0.7340690863489748 -0.0012690479510453   T   T   T
  0.8189924657804394  0.7840621846706209  0.6606713753549185   T   T   T
  0.1554811877190554  0.7455557674326454  0.3527099488063467   T   T   T
  0.4887890422018866  0.2687598171457738 -0.0286188583342478   T   T   T
  0.8941626670173561  0.2284053795990783  0.7062755405930150   T   T   T
  0.0672097583137688  0.2463287160841310  0.3374633830567824   T   T   T
  0.3227871521868079  0.7458805556107800  0.1063656627703742   T   T   T
  0.6381339452516663  0.7376139777100895  0.8246156167078385   T   T   T
  0.5146889471736164  0.7527911856433523  0.4914534989572398   T   T   T
  1.0031680580685307 -0.0148341487773088  0.7620533216938570   T   T   T
  0.0193795312617849  0.7181967746446903  0.5405429606349262   T   T   T
  0.8327522948676167  0.7432028647389705  0.1801134609986064   T   T   T
  0.1939113914902664  0.0146579044348487  0.3560222134176834   T   T   T
  0.3498813162162142  0.2330686196957046  0.1213175614100787   T   T   T
  0.1944710479430141  0.3643287134999083  0.8371702301462295   T   T   T
  0.6198996730661293  0.2537098810433024  0.7981181803198707   T   T   T
 -0.1286584206862170  0.2559152534781013  0.4853635667003958   T   T   T
  0.7993794613556998  0.2348389814821126  0.1222044461672672   T   T   T
  0.2020173718423214  0.4780868609137456  0.3432870783831238   T   T   T
