Sr Co O 
 1.0000000000000000
     3.7734051893772942    0.0000000000000000    0.0000000000000000
     0.0000000000000000    3.7968592458748698    8.0508434815942760
     0.0000000000000000  -11.4871146218132161    4.0736539647289565
 Sr  Co  O  
   7   7  18
Selective dynamics
Direct
 -0.0000000000000000 -0.0223680470975931 -0.0091111219239563   T   T   T
 -0.0000000000000000  0.4402459308771245  0.1496838463035279   T   T   T
 -0.0000000000000000  0.8434026986458336  0.2798300830890953   T   T   T
  0.0000000000000000  0.2994544442113080  0.4344556311966185   T   T   T
  0.0000000000000000  0.7026112119800181  0.5646018679821866   T   T   T
  0.0000000000000000  0.1652251899547354  0.7233968362096711   T   T   T
  0.0000000000000000  0.5714285714285713  0.8571428571428567   T   T   T
  0.5000000000000006  0.2831830105232006  0.9296746816748095   T   T   T
  0.5000000000000006  0.7074505787968737  0.0695850601553791   T   T   T
  0.5000000000000006  0.1378456603286582  0.2190641380106844   T   T   T
  0.5000000000000006  0.5714285714285712  0.3571428571428571   T   T   T
  0.5000000000000006  0.0050114825284850  0.4952215762750297   T   T   T
  0.5000000000000006  0.4354065640602684  0.6447006541303347   T   T   T
  0.5000000000000006  0.8596741323339424  0.7846110326109045   T   T   T
  0.5000000000000006  0.0714285714285715  0.8571428571428570   T   T   T
 -0.0000000000000000  0.2558651960987707  0.9675364200682390   T   T   T
  0.5000000000000006  0.4737136855234464  0.0093723370433923   T   T   T
 -0.0000000000000000  0.7108751699050359  0.0688997741699426   T   T   T
  0.5000000000000006  0.6504647334729143  0.2178010643017677   T   T   T
  0.5000000000000006  0.9541583920251443  0.1394999674950500   T   T   T
  0.0000000000000000  0.1285990907736735  0.2387481575795292   T   T   T
  0.5000000000000006  0.3346555248497631  0.2759457336750898   T   T   T
  0.0000000000000000  0.5714285714285712  0.3571428571428571   T   T   T
  0.5000000000000006  0.4923924093842281  0.4964846499839466   T   T   T
  0.5000000000000006  0.8082016180073791  0.4383399806106242   T   T   T
 -0.0000000000000000  0.0142580520834692  0.4755375567061846   T   T   T
  0.5000000000000006  0.1886987508319977  0.5747857467906644   T   T   T
 -0.0000000000000000  0.4319819729521064  0.6453859401157713   T   T   T
  0.5000000000000006  0.3669432318999729  0.7914610306798873   T   T   T
  0.5000000000000006  0.6691434573336952  0.7049133772423219   T   T   T
  0.0000000000000000  0.8869919467583727  0.7467492942174754   T   T   T
  0.5000000000000006  0.7759139109571694  0.9228246836058264   T   T   T
