Sr Co O 
 1.0000000000000000
     3.9975986501046616   -0.0505088071739161    4.0423943979046602
     0.1673091644613739   -7.8715126019142705   -0.0665702676196577
     3.8468409676310253   -0.1487739718556760   -7.9339315269253579
 Sr  Co  O  
   6   6  13
Selective dynamics
Direct
 -0.0443822119771069  0.0219166008400096  0.0067878442827073   T   T   T
  0.3178279234838095  0.0154902271062748  0.6509053397025345   T   T   T
  0.6841485300876474  0.0166189497069913  0.3528201834198747   T   T   T
 -0.0128969140970573  0.4739926053662602  0.0021612928737432   T   T   T
  0.3472459544910503  0.4908094182195759  0.6278497090435445   T   T   T
  0.6912677787940875  0.4952599990221412  0.3333681462678264   T   T   T
  0.5764173680643868  0.7139020793366584 -0.0045344745842989   T   T   T
  0.8021235568705898  0.7656209104898833  0.6429429669576625   T   T   T
  0.1531704236679584  0.7574960933804291  0.3375306566515514   T   T   T
  0.4889661119386615  0.2896796497498852 -0.0184892728110184   T   T   T
  0.8395274191975625  0.2318611400465536  0.6746811871970729   T   T   T
  0.1607865856741090  0.2530567860503936  0.3393610387129316   T   T   T
  0.6780212611861267  0.6964645412388872  0.8139179127490971   T   T   T
  0.5187128550558004  0.7148302438542623  0.4703849911260737   T   T   T
  0.8963513032087644 -0.0205503094298933  0.7089355872852811   T   T   T
  0.0416216461104693  0.7378471512048126  0.5418014034433266   T   T   T
  0.7946879108791959  0.8098766480237429  0.1712537366606006   T   T   T
  0.2227846677872496  0.0100333582346700  0.3122636463980688   T   T   T
  0.1519355310593283  0.2397421258505667  0.8803868017957223   T   T   T
  0.4165723538537784  0.5246436871493468  0.0327899547504808   T   T   T
  0.6352965096752023  0.2436572598311574  0.8170825907904000   T   T   T
  0.5290775204932373  0.2675313867102455  0.4867063597953626   T   T   T
  0.0247475608304907  0.2605620393636384  0.5279657507073892   T   T   T
  0.7870445567977997  0.2366604439394571  0.1607238748324597   T   T   T
  0.1322772273061483  0.5029969527150089  0.2970694998829993   T   T   T
