Sr Co O 
 1.0000000000000000
     4.1291511705506254   -0.0000000000000000    3.7566123226539077
    -0.0000000000000000   -7.7418301456377829    0.0000000000000000
     4.1190510502716142    0.0000000000000000   -7.5026497619451247
 Sr  Co  O  
   6   6  13
Selective dynamics
Direct
 -0.0256474066233508  0.0207118657662915 -0.0252336141297400   T   T   T
  0.3150237116070818  0.0245664362076223  0.6267002727384272   T   T   T
  0.6784300825364684  0.0184884679288428  0.3250598262795960   T   T   T
 -0.0256474066233508  0.4792881342337071 -0.0252336141297400   T   T   T
  0.3150237116070818  0.4754335637923767  0.6267002727384272   T   T   T
  0.6784300825364684  0.4815115320711575  0.3250598262795960   T   T   T
  0.4533705020827264  0.7499999999999998 -0.0420391798506456   T   T   T
  0.8251080017660173  0.7499999999999998  0.6476461365657955   T   T   T
  0.2073822531313015  0.7499999999999998  0.3208400544167422   T   T   T
  0.4795471158755609  0.2500000000000001 -0.0253015460450390   T   T   T
  0.8222831959891186  0.2500000000000001  0.6451447422466697   T   T   T
  0.1631936699639954  0.2500000000000001  0.3058486648698773   T   T   T
  0.7406376518742641  0.7499999999999998  1.0894583848469108   T   T   T
  0.5233016269280295  0.7499999999999998  0.4771434868412146   T   T   T
  0.8326217187704843 -0.0161817942121972  0.6520812337718155   T   T   T
  0.1642067983396145  0.7499999999999998  0.8207861945910284   T   T   T
  0.1407105537818899 -0.0221887751347104  0.2987490738762115   T   T   T
  0.3005382226187524  0.2500000000000001  0.1250002448455064   T   T   T
  0.1847810933950272  0.2500000000000001  0.8171564432500977   T   T   T
  0.6536185724136505  0.2500000000000001  0.8205071618891751   T   T   T
  0.4926175326991540  0.2500000000000001  0.4711378306518915   T   T   T
  0.8326217187704843  0.5161817942121972  0.6520812337718155   T   T   T
 -0.0029803210302385  0.2500000000000001  0.4743718442036780   T   T   T
  0.7767833066916894  0.2500000000000001  0.1309192114908026   T   T   T
  0.1407105537818899  0.5221887751347101  0.2987490738762115   T   T   T
