Sr Co O 
 1.0000000000000000
    -3.9472075020244786    3.7144152873733769    4.0308363877210525
    -3.9472075020244786   -3.7144152873733769    4.0308363877210525
     3.9201008390407694    0.0000000000000000    8.0343756303954290
 Sr  Co  O  
   6   6  12
Selective dynamics
Direct
 -0.0119865676540719 -0.0152071718309915 -0.0005481289398516   T   T   T
  0.1823100838199931  0.1674817316828923  0.3110974727507818   T   T   T
  0.3204077896628321  0.3438978293967706  0.6895998413213599   T   T   T
  0.4847928281690081  0.4880134323459284 -0.0005481289398518   T   T   T
  0.6674817316828918  0.6823100838199934  0.3110974727507809   T   T   T
  0.8438978293967710  0.8204077896628332  0.6895998413213609   T   T   T
  0.1616975209257887  0.6616975209257897  0.3392716860043263   T   T   T
  0.3273077527961903  0.8273077527961914  0.6582261422721967   T   T   T
  0.4841534375749152 -0.0158465624250850 -0.0203210491749368   T   T   T
  0.6786005173101636  0.1786005173101632  0.3538071206308914   T   T   T
  0.8390523775422510  0.3390523775422508  0.6634612093611929   T   T   T
 -0.0025424599963628  0.4974575400036383 -0.0034701375655680   T   T   T
  0.0715176705747195  0.5715176705747211  0.1907077667980990   T   T   T
  0.3120901955957508  0.8120901955957521  0.1711476427179713   T   T   T
  0.2731124815610227  0.7731124815610239  0.4867431967282922   T   T   T
  0.4347830605607496  0.9347830605607507  0.7681267140230544   T   T   T
  0.6757974599309693  0.1757974599309686  0.8159891619598509   T   T   T
  0.2329059137625551  0.2354492755860271  0.0147465449432963   T   T   T
  0.6023954947702798  0.1023954947702800  0.2127344501441300   T   T   T
  0.7663259471528179  0.2663259471528176  0.4841220928166265   T   T   T
  0.0098980202872587  0.5098980202872594  0.5164002766452246   T   T   T
  0.9021782074822399  0.4021782074822401  0.8361713885452389   T   T   T
  0.1750400876217911  0.6750400876217921  0.8304242267860773   T   T   T
  0.7354492755860268  0.7329059137625564  0.0147465449432960   T   T   T
