Sr Co O 
 1.0000000000000000
    -3.9104037497404982    0.0368046738239468   -3.9106227810781853
     0.0574150889083574   -8.4114138672763126    0.0412222659799645
    -3.8271878651388982    4.1949226188529440    7.6868056444075172
 Sr  Co  O  
   6   6  13
Selective dynamics
Direct
 -0.0381684324776474  0.0169587972726684 -0.0378027285257369   T   T   T
  0.6270515743265314  0.1528397245716343  0.3009236062119650   T   T   T
  0.3250301383945665  0.3110888668635201  0.6613985954298585   T   T   T
 -0.0108054521209410  0.4471367703437097  0.0064651063717123   T   T   T
  0.6527236550826296  0.6075347801597704  0.3326416381361601   T   T   T
  0.3263632066501317  0.8356369718363515  0.6737090244148441   T   T   T
  0.4884913857677209  0.7227731701397829  0.0019801063009501   T   T   T
  0.1716652809571943  0.8967568235039801  0.3754836432935187   T   T   T
  0.8148820871405444  0.1046830821091411  0.6446134559141018   T   T   T
  0.4782542868262643  0.2446747320116337 -0.0139790050242287   T   T   T
  0.1597221889708937  0.4124128889763248  0.3317976057463332   T   T   T
  0.8108620303287835  0.5486600225725905  0.6361633162295290   T   T   T
  0.4850270667055537  0.0417938566055046  0.4737273341487355   T   T   T
 -0.0384686702518854  0.0502221028199199  0.4598552951480965   T   T   T
  0.1484148605098123  0.1319668013818790  0.8022632689252269   T   T   T
  0.8644201414660841  0.3949379544827546  0.7228738702540436   T   T   T
  0.6547961473236347  0.1533024237146191  0.8224396876614284   T   T   T
  0.8183590569747551  0.3119603804733925  0.1760544294324789   T   T   T
  0.5048784083504330  0.5214546151807690  0.0157946060162108   T   T   T
  0.2933465387669659  0.2947692335402026  0.1473997713112025   T   T   T
  0.4875694218688989  0.4280696481707532  0.4715644258540030   T   T   T
  0.1700965765066967  0.6584120475656372  0.3144892062966994   T   T   T
  0.0574217893780249  0.5134824050105234  0.5253094993293189   T   T   T
  0.4662081770498348  0.9197532359220961  0.9816330380285128   T   T   T
  0.7818586174797717  0.7787183568133278  0.6732012288226132   T   T   T
