Sr Co O 
 1.0000000000000000
    -3.8938455646774632    3.8458271375674733    0.0158646633094012
    -0.0288706639735034    3.8477209680732178    8.1351854599284117
     3.9452236697145224    7.7445965687509704   -0.0388146198393666
 Sr  Co  O  
   6   6  14
Selective dynamics
Direct
 -0.0004279605580556 -0.0461354055107475  0.0100997848082812   T   T   T
  0.8138966651174024  0.5263915379791200  0.8086001676380116   T   T   T
  0.6510333113216353 -0.0346574434563538  0.6762960783815244   T   T   T
  0.4662244093220126  0.5137906121286470  0.5058243585347104   T   T   T
  0.3242042147089572 -0.0480691644667346  0.3405920519638792   T   T   T
  0.1686735442589421  0.5136063299134586  0.1425399147811307   T   T   T
  0.7447979550829282  0.2116555196919719  0.2755602126933461   T   T   T
  0.5685034627648191  0.7515576944515976  0.0780720779141559   T   T   T
  0.4475970672839037  0.2441026867228513  0.9509176458875870   T   T   T
  0.2275664020006676  0.7439067553628497  0.7478252061056778   T   T   T
  0.1095065670308709  0.2421826992229628  0.5281188386553811   T   T   T
  0.8982075162616608  0.7368622236549986  0.4116581937651764   T   T   T
  0.8197778173416762 -0.0112778664081877  0.3035698383762714   T   T   T
  0.6419017516656709  0.3066458030064306  0.0667626719096720   T   T   T
  0.9029334791246303  0.7324358388155440  0.9210533142710878   T   T   T
  0.4082436564737416  0.7401326411965093  0.9150446964367229   T   T   T
  0.4697876971170043  0.0255071583919914 -0.0048917861123530   T   T   T
  0.3055673169810016  0.4525599200188067  0.8322253474936288   T   T   T
  0.5505205746537507  0.7505685346692453  0.5828206503047703   T   T   T
  0.0582086252268527  0.7501751475109851  0.5790586420465912   T   T   T
  0.0985643198815005  0.0367567928620715  0.6749309400230373   T   T   T
  0.4837881167775792  0.2476337006717945  0.4676221414582219   T   T   T
  1.0447144777380193  0.2441622297758590  0.3138084513467802   T   T   T
 -0.0407390072590166  0.4486605072925202  0.5385578001878092   T   T   T
  0.2580055588315666  0.7143466363495473  0.2489546632648287   T   T   T
  0.7456091215201326  0.7064989203765033  0.2510447975930534   T   T   T
