Sr Co O 
 1.0000000000000000
     3.6004726083579404    0.0000000000000000    0.0000000000000000
     0.0000000000000000    7.8065873866540327    0.0901780693011861
     0.0000000000000000    0.1304874855440821   13.4835832230781190
 Sr  Co  O  
   6   6  12
Selective dynamics
Direct
  0.0000000000000000  0.0117752708939048 -0.0243728926852214   T   T   T
  0.0000000000000000 -0.0363599373598124  0.3448670241035309   T   T   T
  0.0000000000000000 -0.0174102382390540  0.7028983459756798   T   T   T
  0.0000000000000000  0.4840452376538293 -0.0126314748215475   T   T   T
  0.0000000000000000  0.5158435059853065  0.3449945878371818   T   T   T
  0.0000000000000000  0.5069972518127169  0.6416493442393451   T   T   T
  0.4999999999999992  0.2394936184439203  0.1755436643579642   T   T   T
  0.4999999999999992  0.2329165472579953  0.5153782721319314   T   T   T
  0.4999999999999992  0.2692231800164870  0.8066017547150195   T   T   T
  0.4999999999999992  0.7440218871878613  0.1541384109483446   T   T   T
  0.4999999999999992  0.7914709809997009  0.5226424403185365   T   T   T
  0.4999999999999992  0.7190825324919852  0.8237534421167660   T   T   T
  0.4999999999999992  0.2327563026114144  0.0377701394385119   T   T   T
  0.0000000000000000  0.2433536696453436  0.2342907808682747   T   T   T
  0.0000000000000000  0.3284905672677604  0.4888132108480157   T   T   T
  0.4999999999999992  0.0136237378409980  0.4564491884703311   T   T   T
  0.4999999999999992  0.2661214058628725  0.6651291891314277   T   T   T
  0.4999999999999992  0.0403941290578843  0.8382959104333839   T   T   T
  0.0000000000000000  0.7510682639790784  0.0986341390721436   T   T   T
  0.4999999999999992  0.7184626911581606  0.2919583440497852   T   T   T
  0.0000000000000000  0.7103625770951794  0.4907147242036595   T   T   T
  0.4999999999999992  0.7497001959396881  0.6714502844416936   T   T   T
  0.0000000000000000  0.7603342180005462  0.8660206571829469   T   T   T
  0.4999999999999992  0.4742324439752453  0.8650105182066817   T   T   T
