Sr Co O 
 1.0000000000000000
    -3.9828495553789169    3.8190770550410198    4.0560920781129832
    -3.8393822791496852   -3.7304535787693278    4.1113047468931772
     3.9550730549045023   -0.1261301624358679    8.2135033202793757
 Sr  Co  O  
   6   6  13
Selective dynamics
Direct
  0.0271363021118328 -0.0008975683003339 -0.0274839091191573   T   T   T
  0.1282966390849439  0.1460006973195187  0.3521827371416318   T   T   T
  0.3430813111996331  0.3395547571707257  0.6856124174960635   T   T   T
  0.5321472034831549  0.5056196079314940 -0.0243603908797679   T   T   T
  0.6359024364109147  0.6512129337919546  0.3482536314968652   T   T   T
  0.8232019344307554  0.8612385383820417  0.6790236381828990   T   T   T
  0.1676501402233941  0.6573618309063011  0.3472669475142766   T   T   T
  0.3270448107054158  0.8256040275327100  0.6848681398585683   T   T   T
  0.5257080348617397 -0.0146506222616361  0.0111695335946365   T   T   T
  0.6551611583556831  0.1845791389895441  0.2938461532153553   T   T   T
  0.8454081401496192  0.3567160714333302  0.6632378884417968   T   T   T
 -0.0197239467006547  0.5096338613599011 -0.0067300060120783   T   T   T
  0.3202681340962837  0.7778139295079836  0.1695852607679333   T   T   T
  0.2327893707833990  0.7415931984375395  0.5067007356263321   T   T   T
  0.0958436237206097  0.0863513516100082  0.6537336691736613   T   T   T
  0.4288026360033272  0.9342931875168559  0.8379583961109840   T   T   T
  0.6672137342023083  0.1897237211219104  0.8357688531413011   T   T   T
  0.4836620031585904  0.1401135642183084  0.1919032687458902   T   T   T
  0.8918585810432348  0.2753728505785053  0.1501745962279692   T   T   T
  0.6801018079107212  0.2191915647606326  0.4778582348583045   T   T   T
 -0.0080582696186326  0.4950750235522871  0.4376791579200859   T   T   T
  0.6065075585100117  0.6400380248362316  0.6348611877096602   T   T   T
  0.9440798618450192  0.4349579864539256  0.8203811505351650   T   T   T
  0.2037397736198479  0.6211097334407378  0.8726299566566215   T   T   T
  0.7955102209843707  0.7557258744653298  0.0705454037248400   T   T   T
