Sr Co O 
 1.0000000000000000
     0.0037418122728758   -4.0346757833733777   -3.8704221887353194
    -3.8666803764624467    0.0000000000000000   -3.8666803764624431
     7.7726736125253622    8.0883428426957771  -11.6393539889877911
 Sr  Co  O  
   7   7  19
Selective dynamics
Direct
  0.0193019516138677  0.0086248206822858 -0.0048201861056150   T   T   T
  0.6949837626718488  0.7373923004762519  0.8619630432484718   T   T   T
  0.3886610243133838  0.4452447479716813  0.7147995593002886   T   T   T
  0.1410929059118343  0.1490176481366941  0.5622339873492210   T   T   T
  0.8571428571428585  0.8614144241944822  0.4285714285714281   T   T   T
  0.5731928083738812  0.5666302556834630  0.2949088697936356   T   T   T
  0.3256246899723304  0.2629910458710703  0.1423432978425676   T   T   T
  0.6614146964913719  0.6304996097330633  0.0637117989169835   T   T   T
  0.3571428571428586  0.3658451689073964  0.9285714285714279   T   T   T
  0.0528710177943431  0.0699118194271322  0.7934310582258732   T   T   T
  0.7865032930395427  0.8039043046189979  0.6302754426580901   T   T   T
  0.4997053091793006  0.5018317499088307  0.4994289249521466   T   T   T
  0.2145804051064142  0.2152516983259950  0.3577139321907087   T   T   T
  0.9277824212461728  0.9349687546023461  0.2268674144847650   T   T   T
  0.5322224889320227  0.0051364199514025 -0.0040485942281516   T   T   T
  0.0083257832590428  0.5176483428828884  0.0216829879509836   T   T   T
  0.5309387761444223  0.4915661019086650 -0.0083760055958428   T   T   T
  0.1833469381412924  0.7284145867429576  0.8655188627386992   T   T   T
  0.7059599310266753  0.2619428283786310  0.8354598691918735   T   T   T
  0.1820632253536941  0.2475960289409849  0.8611914513710084   T   T   T
  0.3129008607868630  1.0125590244355593  0.7129387212750059   T   T   T
  0.8851301082587282  0.8784043831819934  0.7189204060843208   T   T   T
  0.6146266244087555  0.1458547402912677  0.5606142268274209   T   T   T
  0.1395411858143020  0.6342887963744641  0.5732402489774241   T   T   T
  0.6638732692630915  0.5934601503382567  0.5952885864415222   T   T   T
  0.3843120822320303  0.8519604031649036  0.4412980565924679   T   T   T
  0.8571428571428580  0.3584284734511060  0.4285714285714278   T   T   T
  0.3299736320536832  0.3918562562751191  0.4158448005503879   T   T   T
  0.0504124450226244  0.5669077203285846  0.2618542707013347   T   T   T
  0.5747445284714128  0.0613559454519071  0.2839026081654323   T   T   T
  0.0996590898769626  0.0353813058131563  0.2965286303154360   T   T   T
  0.8291556060269892  0.1967406118107552  0.1382224510585351   T   T   T
  0.4013848534988520  0.7526843207831430  0.1442041358678494   T   T   T
