Sr Co O 
 1.0000000000000000
    -3.9585552880225960    4.0512693875879817    0.1449776029946270
     3.9585552880225960    4.0512693875879817   -0.1449776029946271
     0.4401907606684319   -4.0512693875879817  -11.1765998456664324
 Sr  Co  O  
   6   6  12
Selective dynamics
Direct
  0.0000000000000000  0.0000000000000000 -0.0000000000000000   T   T   T
  0.8229708770827902  0.8000405223321282  0.6640748103489593   T   T   T
  0.6359657119831670  0.6588960667338338  0.3359251896510418   T   T   T
  0.5000000000000010  0.5000000000000028 -0.0000000000000000   T   T   T
  0.3640342880168369  0.3411039332661733  0.6640748103489594   T   T   T
  0.1770291229172130  0.1999594776678782  0.3359251896510419   T   T   T
  0.9173315193988778  0.3852440423465217  0.8025755617453949   T   T   T
  0.7613871826838075  0.2622519255729014  0.5236391082567067   T   T   T
  0.5436261740280699  0.1208788430141684  0.1645050170422385   T   T   T
  0.4563738259719337  0.8791211569858371  0.8354949829577625   T   T   T
  0.2386128173161968  0.7377480744271047  0.4763608917432949   T   T   T
  0.0826684806011265  0.6147559576534855  0.1974244382546076   T   T   T
  0.6807416668564410  0.1306064882957226  0.8158353023067033   T   T   T
  0.9899904542908073  0.1786486692530240  0.6686391235438301   T   T   T
  0.4999999999999999  0.0000000000000012  0.5000000000000006   T   T   T
  0.3192583331435644  0.8693935117042836  0.1841646976932989   T   T   T
  0.4999999999999998  0.0000000000000001 -0.0000000000000000   T   T   T
  0.7170023748492313  0.6317677734644868  0.8487701483137117   T   T   T
  0.1852288140109844  0.6350936354502660  0.8158353023067030   T   T   T
  0.5000000000000019  0.5000000000000034  0.5000000000000010   T   T   T
  0.0000000000000023  0.5000000000000031  0.5000000000000010   T   T   T
  0.0100095457091972  0.8213513307469820  0.3313608764561717   T   T   T
  0.2829976251507718  0.3682322265355200  0.1512298516862898   T   T   T
  0.8147711859890184  0.3649063645497406  0.1841646976932987   T   T   T
