Sr Co O 
 1.0000000000000000
    -4.3950818548814983   -0.0000000000000000   -3.6844979881883604
    -0.0000000000000001   -7.3764885433077829   -0.0000000000000000
    -4.4726742737822196    3.6882442716538915    7.4398075904492318
 Sr  Co  O  
   6   6  13
Selective dynamics
Direct
 -0.0000000000000000 -0.0000000000000000  0.0000000000000000   T   T   T
  0.7100362770364883  0.1770369691724668  0.3540739383449340   T   T   T
  0.2953056643732246  0.3337995681255247  0.6675991362510507   T   T   T
  0.0000000000000000  0.4999999999999994 -0.0000000000000000   T   T   T
  0.7046943356267744  0.6662004318744731  0.3324008637489481   T   T   T
  0.2899637229635131  0.8229630308275322  0.6459260616550661   T   T   T
  0.5000000000000006  0.7480890872924518 -0.0000000000000001   T   T   T
  0.2094350983196022  0.9256600488639697  0.3426402264545869   T   T   T
  0.7905649016803975  0.0743399511360287  0.6573597735454123   T   T   T
  0.5000000000000006  0.2519109127075465 -0.0000000000000001   T   T   T
  0.2094350983196022  0.4169801775906156  0.3426402264545869   T   T   T
  0.7905649016803975  0.5830198224093831  0.6573597735454123   T   T   T
  0.7730299822653136  0.8437595459561542  0.1346761888684046   T   T   T
  0.5000000000000004  0.0000000000000002  0.5000000000000000   T   T   T
  0.2456961853077318  0.1328628260269320  0.2657256520538644   T   T   T
 -0.0000000000000001 -0.0000000000000003  0.5000000000000000   T   T   T
  0.2269700177346858  0.1562404540438427  0.8653238111315940   T   T   T
  0.8029874701820665  0.3615343506445202  0.7230687012890414   T   T   T
  0.7730299822653136  0.2909166429122484  0.1346761888684048   T   T   T
  0.5000000000000006  0.4999999999999991 -0.0000000000000001   T   T   T
  0.5000000000000004  0.4999999999999995  0.5000000000000000   T   T   T
  0.1970125298179352  0.6384656493554782  0.2769312987109580   T   T   T
 -0.0000000000000001  0.4999999999999989  0.5000000000000000   T   T   T
  0.2269700177346856  0.7090833570877492  0.8653238111315942   T   T   T
  0.7543038146922683  0.8671371739730664  0.7342743479461348   T   T   T
