Sr Co O 
 1.0000000000000000
     3.7388475702467607   -0.0000000000000000    0.0000000000000000
    -0.0000000000000000    8.0940041697741485    0.0000000000000000
     0.0000000000000000    0.0000000000000000   12.1108347132849890
 Sr  Co  O  
   6   6  12
Selective dynamics
Direct
 -0.0000000000000000 -0.0285844075500558  0.0000000000000000   T   T   T
 -0.0000000000000000 -0.0260579304922538  0.3266991324870373   T   T   T
  0.0000000000000000 -0.0260579304922538  0.6733008675129635   T   T   T
 -0.0000000000000000  0.5285844075500554 -0.0000000000000000   T   T   T
 -0.0000000000000000  0.5260579304922532  0.3266991324870373   T   T   T
 -0.0000000000000000  0.5260579304922532  0.6733008675129635   T   T   T
  0.5000000000000003  0.2499999999999998  0.1554815469282798   T   T   T
  0.5000000000000003  0.2499999999999998  0.4999999999999999   T   T   T
  0.5000000000000003  0.2499999999999998  0.8445184530717199   T   T   T
  0.5000000000000003  0.7499999999999999  0.1688930384839099   T   T   T
  0.5000000000000003  0.7499999999999999  0.4999999999999999   T   T   T
  0.5000000000000003  0.7499999999999999  0.8311069615160903   T   T   T
  0.5000000000000003  0.2499999999999998  0.0000000000000000   T   T   T
  0.5000000000000003  0.0334694539604172  0.1923272384876694   T   T   T
  0.5000000000000003  0.0311545170833273  0.4999999999999999   T   T   T
  0.5000000000000003  0.0334694539604172  0.8076727615123303   T   T   T
  0.5000000000000003  0.7499999999999999  0.0000000000000000   T   T   T
  0.0000000000000000  0.7499999999999999  0.1727141351681064   T   T   T
  0.5000000000000003  0.4665305460395823  0.1923272384876694   T   T   T
  0.5000000000000003  0.7499999999999999  0.3504842707158153   T   T   T
  0.5000000000000003  0.4688454829166728  0.4999999999999999   T   T   T
  0.5000000000000003  0.7499999999999999  0.6495157292841856   T   T   T
  0.0000000000000000  0.7499999999999999  0.8272858648318930   T   T   T
  0.5000000000000003  0.4665305460395823  0.8076727615123303   T   T   T
