Sr Co O 
 1.0000000000000000
     3.6594826723222007    0.0000000000000000    0.0000000000000000
     0.0000000000000000    7.9814523851705390    0.0871632657470187
     0.0000000000000000    0.1294836753892535   12.7307203662742108
 Sr  Co  O  
   6   6  12
Selective dynamics
Direct
  0.0000000000000000 -0.0091917857741354 -0.0073077870651629   T   T   T
  0.0000000000000000  0.0058422193553568  0.3378717546304154   T   T   T
  0.0000000000000000 -0.0230392789272383  0.6651226741187337   T   T   T
  0.0000000000000000  0.5264909416909835  0.0109830524535225   T   T   T
  0.0000000000000000  0.5297401026069651  0.3048132400294279   T   T   T
  0.0000000000000000  0.5266805327175367  0.6900040941003128   T   T   T
  0.4999999999999998  0.2694622812586557  0.1667780320497792   T   T   T
  0.4999999999999998  0.2547075755972688  0.4837756291120181   T   T   T
  0.4999999999999998  0.2554467031901332  0.8304526928504481   T   T   T
  0.4999999999999998  0.7716812354979439  0.1580009369471072   T   T   T
  0.4999999999999998  0.6876535193646918  0.5050740776192049   T   T   T
  0.4999999999999998  0.7390224340492491  0.8482790445925995   T   T   T
  0.0000000000000000  0.2377376828137419  0.1041569171400344   T   T   T
  0.4999999999999998  0.2312849085869792  0.3223950678325099   T   T   T
  0.0000000000000000  0.1499007786529953  0.5085474381009008   T   T   T
  0.0000000000000000  0.1845190808436671  0.8136050253224950   T   T   T
  0.4999999999999998  0.7921147699739066 -0.0000636517851153   T   T   T
  0.0000000000000000  0.8374061137421577  0.1783153224202625   T   T   T
  0.4999999999999998  0.5210159493953602  0.1636382250743117   T   T   T
  0.4999999999999998  0.7504076855244952  0.3673307833901534   T   T   T
  0.4999999999999998  0.4624394997414554  0.5617827648856113   T   T   T
  0.4999999999999998  0.7813707015036088  0.6374654274783996   T   T   T
  0.0000000000000000  0.7847258657807007  0.8215775976588723   T   T   T
  0.4999999999999998  0.4825804502033102  0.8607350464740231   T   T   T
