Sr Co O 
 1.0000000000000000
    -3.7984176913618581    0.0000000000000000    0.0000000000000000
     0.0000000000000000    4.2076986982953617    7.7812807071666228
     0.0000000000000000    8.3194617575600418   -3.8417112242520823
 Sr  Co  O  
   5   5  11
Selective dynamics
Direct
 -0.0000000000000000 -0.0051909406095957  0.0350639858537115   T   T   T
 -0.0000000000000000  0.4000000000000000  0.8000000000000015   T   T   T
 -0.0000000000000000  0.8051909406095951  0.5649360141462897   T   T   T
  0.0000000000000000  0.1886458259158580  0.3544753828037318   T   T   T
  0.0000000000000000  0.6113541740841413  0.2455246171962692   T   T   T
  0.4999999999999998  0.3246015083791058  0.0950774354197495   T   T   T
  0.4999999999999998  0.7184197987957757  0.9189294376237090   T   T   T
  0.4999999999999998  0.0815802012042252  0.6810705623762949   T   T   T
  0.4999999999999998  0.4753984916208940  0.5049225645802533   T   T   T
  0.4999999999999998  0.8999999999999991  0.3000000000000019   T   T   T
  0.4999999999999998  0.0917484002990868  0.1826189434985937   T   T   T
  0.0000000000000000  0.2830645230783809  0.0537487944679754   T   T   T
  0.4999999999999998  0.5147055666979647 -0.0663725403191083   T   T   T
  0.4999999999999998  0.8999999999999988  0.8000000000000012   T   T   T
  0.4999999999999998  0.0154167217306174  0.4919739405804668   T   T   T
  0.4999999999999998  0.2852944333020347  0.6663725403191096   T   T   T
 -0.0000000000000000  0.5169354769216183  0.5462512055320258   T   T   T
  0.4999999999999998  0.3999999999999992  0.3000000000000000   T   T   T
  0.4999999999999998  0.7082515997009124  0.4173810565014079   T   T   T
 -0.0000000000000000  0.8999999999999991  0.3000000000000019   T   T   T
  0.4999999999999998  0.7845832782693817  0.1080260594195346   T   T   T
