Sr Co O 
 1.0000000000000000
    -3.9679425277094729    0.0170682669694048   -4.0525908218337801
    -0.1334393014283273   -8.0294018371113083    0.1710049570726855
    -3.7470282995702306    3.7716231658739483    7.8640743853258197
 Sr  Co  O  
   6   6  12
Selective dynamics
Direct
 -0.0424049892948598 -0.0346143144581196 -0.0326120572662753   T   T   T
  0.6638850544107058  0.2106014166817497  0.3616892837050525   T   T   T
  0.3591131760804323  0.3789969992202652  0.6752371062126067   T   T   T
 -0.0252056405731996  0.4908390086166356 -0.0252539165399071   T   T   T
  0.6611405998864135  0.6566845234535015  0.3468547351889098   T   T   T
  0.3518037951091510  0.8158275538044150  0.6642663065131967   T   T   T
  0.5203943875883306  0.7291843785403799  0.0029726272307703   T   T   T
  0.0694590451109762  0.8910052194898773  0.3224288562227131   T   T   T
  0.9046535741557861  0.0766378706454376  0.6446896768842509   T   T   T
  0.4619985469443800  0.2641525434616296  0.0163325827309194   T   T   T
  0.1786626866089311  0.4452915849282855  0.3237211347033082   T   T   T
  0.8508407103462433  0.5871419526788592  0.6656692771423312   T   T   T
  0.6791547900857426  0.6690020371005335  0.8364774242831757   T   T   T
  0.7722057703681258  0.9269451678793359  0.1838884527295471   T   T   T
  0.1546646975515814  0.0580687430860452  0.5351896280602235   T   T   T
  0.8099598474787097  0.3003278976008943  0.6722865409563202   T   T   T
  0.5834390354529078  0.0942921977576869  0.8836757198946608   T   T   T
  0.5719340644575971  0.5044312277217192  0.0482383937763198   T   T   T
  0.2593604160696150  0.2605406421120156  0.1421513278473122   T   T   T
  0.5020676798610432  0.5003895798005000  0.4967081344972104   T   T   T
  0.1968098326199771  0.6725993079205120  0.2754926212643038   T   T   T
 -0.0236115612225923  0.4669556310421341  0.4555920154866070   T   T   T
  0.1815549781323696  0.6802326565795439  0.8552169241583170   T   T   T
  0.8581195462457293  0.8544662784708885  0.6490872900352560   T   T   T
