Sr Co O 
 1.0000000000000000
    -3.9252874400041460    3.9536047844936597    3.7543233275547276
    -3.9783369709982428   -0.0411056502042448   -7.5216125237399254
     0.0145060100679845   -7.8502480783074580    3.7135939781044729
 Sr  Co  O  
   7   7  18
Selective dynamics
Direct
 -0.0066365399224334  0.0007747170223321  0.0118268907712093   T   T   T
  0.2918237044687853  0.7253824299104290  0.1585725295534257   T   T   T
  0.5714285714285725  0.4285714285714273  0.2857142857142859   T   T   T
  0.8510334383883601  0.1317604272324259  0.4128560418751464   T   T   T
  0.1494936827795774  0.8563681401205248  0.5596016806573615   T   T   T
  0.4243715691056829  0.5677465263091147  0.7142155267931889   T   T   T
  0.7184855737514632  0.2893963308337391  0.8572130446353821   T   T   T
  0.9293102583684036  0.5762326090252939  0.7134474377719399   T   T   T
  0.2135468844887404  0.2809102481175594  0.8579811336566306   T   T   T
  0.5067737585691284 -0.0095410200409260 -0.0015433496889842   T   T   T
  0.7894980675966565  0.7088412944337064  0.1467912913065340   T   T   T
  0.0714285714285717  0.4285714285714284  0.2857142857142855   T   T   T
  0.3533590752604883  0.1483015627091482  0.4246372801220379   T   T   T
  0.6360833842880160  0.8666838771837803  0.5729719211175559   T   T   T
  0.1828618382999080  0.7867105802452707  0.8326469587124417   T   T   T
  0.8750295520707730  0.6382675600352724  0.9178782495059932   T   T   T
  0.4893725259209146  0.4701009014951376 -0.0106577201309270   T   T   T
  0.1441127676310540  0.3678818778612561  0.0527267984966743   T   T   T
  0.7673714587937671  0.2133305416014118  0.1268408248671716   T   T   T
  0.4136564714299450  0.0774738055146490  0.1809701581847685   T   T   T
  0.6237073712466950  0.8312554269780891  0.0709382328956351   T   T   T
  0.0714285714285722  0.9285714285714279  0.2857142857142856   T   T   T
  0.7292006714271990  0.7796690516282049  0.3904584132438028   T   T   T
  0.9357673169164112  0.5742141484497709  0.2224904281892865   T   T   T
  0.3754856840633769  0.6438123155414421  0.4445877465613998   T   T   T
 -0.0012556247739104  0.4892609792816008  0.5187017729318969   T   T   T
  0.2070898259407328  0.2829287086930829  0.3489381432392848   T   T   T
  0.6534846169362298  0.3870419556477163  0.5820862915594986   T   T   T
  0.2678275907863727  0.2188752971075822  0.6535503219225781   T   T   T
  0.5191497716104491  0.0258874301647644  0.5004903385329360   T   T   T
  0.9599953045572377  0.0704322768975845  0.7387816127161303   T   T   T
  0.5714285714285745  0.9285714285714279  0.7857142857142859   T   T   T
