Sr Co O 
 1.0000000000000000
     4.0249503711354810    0.0000000000000000    3.7740154168490947
     0.0000000000000000   -7.9072909578453183   -0.0000000000000000
     3.8793131262088520   -0.0000000000000000   -7.4044668495230592
 Sr  Co  O  
   6   6  12
Selective dynamics
Direct
 -0.0000000000000000  0.0086636765328640 -0.0000000000000000   T   T   T
  0.3098559425363279  0.0089704894584008  0.6542784499696556   T   T   T
  0.6901440574636730  0.0089704894584008  0.3457215500303428   T   T   T
  0.0000000000000000  0.4913363234671363  0.0000000000000000   T   T   T
  0.3098559425363277  0.4910295105415990  0.6542784499696556   T   T   T
  0.6901440574636730  0.4910295105415990  0.3457215500303428   T   T   T
  0.5000000000000002  0.7500000000000002  0.0000000000000002   T   T   T
  0.8180094517915603  0.7500000000000002  0.6702175948340440   T   T   T
  0.1819905482084418  0.7500000000000002  0.3297824051659543   T   T   T
  0.5000000000000002  0.2499999999999998  0.0000000000000002   T   T   T
  0.8520941223367303  0.2499999999999998  0.6874441635935244   T   T   T
  0.1479058776632728  0.2499999999999998  0.3125558364064742   T   T   T
  0.2054697768790175  0.7500000000000002  0.8498440688162691   T   T   T
  0.5000000000000012  0.7500000000000002  0.4999999999999991   T   T   T
  0.8328637528260134 -0.0168820890442231  0.6701578144723400   T   T   T
  0.7945302231209855  0.7500000000000002  0.1501559311837292   T   T   T
  0.1671362471739896 -0.0168820890442231  0.3298421855276587   T   T   T
  0.4138472253504657  0.2499999999999998  0.2056199991883036   T   T   T
  0.1683831603921625  0.2499999999999998  0.8747614023031683   T   T   T
  0.5861527746495357  0.2499999999999998  0.7943800008116944   T   T   T
  0.8328637528260134  0.5168820890442228  0.6701578144723400   T   T   T
  0.0000000000000012  0.2499999999999998  0.4999999999999989   T   T   T
  0.8316168396078388  0.2499999999999998  0.1252385976968290   T   T   T
  0.1671362471739895  0.5168820890442228  0.3298421855276586   T   T   T
