Sr Co O 
 1.0000000000000000
    -3.6992365076870901    0.0000000000000000    0.0000000000000000
     0.0000000000000000    4.2623945210782823    7.8205877575840983
     0.0000000000000000    8.6682682298607485   -3.9792655864008255
 Sr  Co  O  
   5   5  10
Selective dynamics
Direct
 -0.0000000000000000 -0.0109637571086695  0.0369650445178403   T   T   T
 -0.0000000000000000  0.3684607986253227  0.7896012193620066   T   T   T
 -0.0000000000000000  0.8115024015285616  0.5812706951647459   T   T   T
 -0.0000000000000000  0.2106670272020748  0.3729820818209992   T   T   T
 -0.0000000000000000  0.6468437786641320  0.2399750106015090   T   T   T
  0.4999999999999997  0.3530250915363509  0.0972720109932621   T   T   T
  0.4999999999999997  0.6858392856325647  0.9138604338148119   T   T   T
  0.4999999999999997  0.0458255942295995  0.7161905079979836   T   T   T
  0.4999999999999997  0.4934832991113443  0.4830086854944606   T   T   T
  0.4999999999999997  0.9257428379509763  0.3393159924582704   T   T   T
  0.4999999999999997  0.1485421438846220  0.1280876539485555   T   T   T
  0.4999999999999997  0.4667359523430352 -0.0797336953147881   T   T   T
  0.4999999999999997  0.8152491453348627  0.7536954125256181   T   T   T
 -0.0000000000000000  0.1017174103795220  0.7855864235304878   T   T   T
  0.4999999999999997  0.0615420624920829  0.5063908769996177   T   T   T
 -0.0000000000000000  0.4391794412827159  0.5441279470974665   T   T   T
  0.4999999999999997  0.4244037375953885  0.2805280715655887   T   T   T
  0.4999999999999997  0.7080179995728731  0.4296451048185604   T   T   T
 -0.0000000000000000  0.9282898000407241  0.2977979182461726   T   T   T
  0.4999999999999997  0.7758959522764930  0.0834325729225462   T   T   T
