Sr Co O 
 1.0000000000000000
     3.8062710050121455    3.9941865154449325    0.0000000000000000
     3.9575122295275329   -4.1448181616358628    0.0000000000000000
     0.0000000000000000    0.0000000000000000  -11.2374755974331304
 Sr  Co  O  
   6   6  12
Selective dynamics
Direct
 -0.0422826388835736  0.0168557344342523 -0.0000000000000000   T   T   T
 -0.0248794514468976 -0.0089677245842697  0.6663528690009546   T   T   T
 -0.0248794514468976 -0.0089677245842697  0.3336471309990458   T   T   T
  0.5422826388835736  0.4831442655657473 -0.0000000000000000   T   T   T
  0.5248794514468984  0.5089677245842701  0.6663528690009546   T   T   T
  0.5248794514468984  0.5089677245842701  0.3336471309990459   T   T   T
  0.5048034738353318 -0.0092861596054999  0.8361845176184529   T   T   T
  0.4669570151871299 -0.0097057698480088  0.5000000000000001   T   T   T
  0.5048034738353318 -0.0092861596054999  0.1638154823815474   T   T   T
 -0.0048034738353314  0.5092861596054997  0.8361845176184529   T   T   T
  0.0330429848128700  0.5097057698480085  0.5000000000000001   T   T   T
 -0.0048034738353314  0.5092861596054997  0.1638154823815474   T   T   T
  0.3973225693856366  0.0151754151038170 -0.0000000000000000   T   T   T
  0.4325783131747956 -0.0377988198462899  0.6689839257221102   T   T   T
  0.2500000000000001  0.2499999999999998  0.5000000000000001   T   T   T
  0.4325783131747956 -0.0377988198462899  0.3310160742778892   T   T   T
  0.1026774306143636  0.4848245848961829  0.0000000000000000   T   T   T
  0.7500000000000000  0.2500000000000001  0.8279178544954960   T   T   T
  0.7500000000000007  0.7500000000000004  0.8439212786258725   T   T   T
  0.0674216868252045  0.5377988198462894  0.6689839257221102   T   T   T
  0.7500000000000007  0.7500000000000004  0.5000000000000001   T   T   T
  0.0674216868252045  0.5377988198462894  0.3310160742778892   T   T   T
  0.7500000000000000  0.2500000000000001  0.1720821455045039   T   T   T
  0.7500000000000007  0.7500000000000004  0.1560787213741275   T   T   T
