Sr Co O 
 1.0000000000000000
     3.8267078318655194    0.0000000000000000    0.0000000000000000
     0.0000000000000000    3.7599813646702356    0.0000000000000000
     0.0000000000000000    0.0000000000000000   33.7816387338879025
 Sr  Co  O  
   8   8  20
Selective dynamics
Direct
  0.0000000000000000  0.0000000000000000 -0.0134138418023867   T   T   T
  0.0000000000000000  0.0000000000000000  0.1368605773068196   T   T   T
  0.0000000000000000  0.0000000000000000  0.2488568076700877   T   T   T
  0.0000000000000000  0.0000000000000000  0.3664154944568915   T   T   T
  0.0000000000000000  0.0000000000000000  0.5135775498942022   T   T   T
  0.0000000000000000  0.0000000000000000  0.6321331683148754   T   T   T
  0.0000000000000000  0.0000000000000000  0.7500939727245639   T   T   T
  0.0000000000000000  0.0000000000000000  0.8678460437265991   T   T   T
  0.5000000000000001  0.5000000000000006  0.0629586318599513   T   T   T
  0.5000000000000001  0.5000000000000006  0.1923161730910760   T   T   T
  0.5000000000000001  0.5000000000000006  0.3084046122873868   T   T   T
  0.5000000000000001  0.5000000000000006  0.4385429141718067   T   T   T
  0.5000000000000001  0.5000000000000006  0.5733132416198168   T   T   T
  0.5000000000000001  0.5000000000000006  0.6913215655707710   T   T   T
  0.5000000000000001  0.5000000000000006  0.8089198004506359   T   T   T
  0.5000000000000001  0.5000000000000006  0.9273413518378937   T   T   T
  0.5000000000000001  0.5000000000000006  0.0112633676425019   T   T   T
  0.5000000000000001  0.5000000000000006  0.1151971439560082   T   T   T
  0.0000000000000000  0.5000000000000006  0.1877926279436700   T   T   T
  0.5000000000000001  0.0000000000000000  0.1869790416634588   T   T   T
  0.5000000000000001  0.5000000000000006  0.2517478708503595   T   T   T
  0.0000000000000000  0.5000000000000006  0.3223590499631367   T   T   T
  0.5000000000000001  0.0000000000000000  0.3170311340318114   T   T   T
  0.5000000000000001  0.0000000000000000  0.4162664857170847   T   T   T
  0.5000000000000001  0.5000000000000006  0.4919390989806356   T   T   T
  0.0000000000000000  0.5000000000000006  0.5646245826354430   T   T   T
  0.5000000000000001  0.0000000000000000  0.5638334092813805   T   T   T
  0.5000000000000001  0.5000000000000006  0.6275884212329164   T   T   T
  0.0000000000000000  0.5000000000000006  0.6887151743080890   T   T   T
  0.5000000000000001  0.0000000000000000  0.6887315496119819   T   T   T
  0.5000000000000001  0.5000000000000006  0.7503890187463080   T   T   T
  0.0000000000000000  0.5000000000000006  0.8121241240843842   T   T   T
  0.5000000000000001  0.0000000000000000  0.8121037901852080   T   T   T
  0.5000000000000001  0.5000000000000006  0.8733488227135489   T   T   T
  0.0000000000000000  0.5000000000000006  0.9369850974945083   T   T   T
  0.5000000000000001  0.0000000000000000  0.9379921520614261   T   T   T
