Sr Co O 
 1.0000000000000000
    -3.3670846194116613    4.3167950441040119    3.9311689308975661
    -2.5885794041698058   -3.6160574250315363    4.0336169895885234
     4.1150393236769833   -0.4815713203382060    9.0679744251058665
 Sr  Co  O  
   6   6  12
Selective dynamics
Direct
  0.0364281667905516  0.0343138204148660 -0.0475956929324604   T   T   T
  0.1580109859477045  0.1184736540122714  0.3948185393623004   T   T   T
  0.3697696126626612  0.3676227128519170  0.6190709024812485   T   T   T
  0.4913382956181102  0.4518128586816433  0.0614835689364623   T   T   T
  0.7031101360899310  0.7009465131370116  0.2857419265203202   T   T   T
  0.8246724221613959  0.7851605352249930  0.7281513075065162   T   T   T
  0.2063002893748474  0.7033796699409225  0.2886485014972353   T   T   T
  0.3214794162628668  0.7827272530735939  0.7252359792228359   T   T   T
  0.5396222130355882  0.0367141126801594 -0.0446819618274993   T   T   T
  0.6548229419881040  0.1160504832310317  0.3919044001189914   T   T   T
  0.8729642558635575  0.3700588549354098  0.6219824674080633   T   T   T
 -0.0118500057465235  0.4494041804679247  0.0585682556971923   T   T   T
  0.0972202001790792  0.5763893368438808  0.1736155434882452   T   T   T
  0.3657980481982230  1.0073910278401816  0.1629997037266785   T   T   T
  0.0972204201324259  0.0763943623745993  0.6736096017352330   T   T   T
  0.4305531914652372  0.9097251218096339  0.8402766176346291   T   T   T
  0.8286379803166524  0.1453971264279327  0.1842169479858649   T   T   T
  0.4305586965397244  0.4097167035895525  0.3402766651656843   T   T   T
  0.7638910790409595  0.2430513378990951  0.5069496729620224   T   T   T
  0.0324879126615651  0.6740483559807877  0.4963402133426107   T   T   T
  0.4953017507251289  0.8120560671481516  0.5175492948157208   T   T   T
  0.6991545734315497  0.3407045584586001  0.8296781057010316   T   T   T
  0.1619593381084967  0.4787376061011731  0.8508792512170532   T   T   T
  0.7638812289962016  0.7430574120752732  0.0069470928667304   T   T   T
