Sr Co O 
 1.0000000000000000
    -4.0206553062023147    4.0271683293209728   -0.0529362439488565
    -0.0723629588102691    3.8511129127818431    7.6601764292904750
     4.0877883350457305    8.1233013264608811   -0.2572863473554641
 Sr  Co  O  
   6   6  13
Selective dynamics
Direct
  0.0322015926872936  0.0299804618562136 -0.0127125895785603   T   T   T
  0.8664099970847478  0.5157345247472065  0.8027783272546486   T   T   T
  0.6885642606343538  0.0063660536983762  0.6469067005831098   T   T   T
  0.4950826941385076  0.4790826616295162  0.4966361220892806   T   T   T
  0.2983393759361766 -0.0266560066520692  0.3701355847372217   T   T   T
  0.1442049779237435  0.4432034779524626  0.1684471915939200   T   T   T
  0.7245432312074553  0.2060736951870790  0.2804882735959245   T   T   T
  0.5596289052606922  0.8024330546294416  0.0827415934303138   T   T   T
  0.4629812086218247  0.2457996105447445  0.8792703932271061   T   T   T
  0.2930599216373383  0.7211481672974046  0.7980771471008585   T   T   T
  0.0618511667786481  0.2776702773144555  0.5723875243086184   T   T   T
  0.9532064684304400  0.7344949173560428  0.3396814905464798   T   T   T
  0.7574184434822702 -0.0388668213088477  0.3654243672959601   T   T   T
 -0.1225669159691324  0.3104555454287749  0.0778810156404391   T   T   T
  0.4807033385595961  0.7974540591290148  0.8826405583419576   T   T   T
  0.4174085475226783  0.0561883617305972  0.0675476785654178   T   T   T
  0.8094594536335041  0.1802686190237551  0.7642320264851855   T   T   T
  0.2706059984367961  0.2623050167330777  0.7273376775069026   T   T   T
  0.3967224511701503  0.4763595003885773  0.8845966448183570   T   T   T
  0.1022811850171996  0.7823613118586172  0.6516432059850996   T   T   T
  0.3856097750730363  0.2668300902985047  0.3882212367033465   T   T   T
  0.9060142301962643  0.2334070419933361  0.4153882348564580   T   T   T
 -0.1106772372610441  0.5312143984018700  0.5174915970629266   T   T   T
  0.3198940183532462  0.7179434317736817  0.2845544207501233   T   T   T
  0.8903861216312215  0.7387486041658379  0.1315368847180845   T   T   T
