Sr Co O 
 1.0000000000000000
    -3.7496966117332922    4.0139137367506148   -0.0711376146680415
     0.1867167767861136    4.0723421613702051    8.1185359412499150
     3.7798953413326952    8.0617056434732586    0.1424075955381394
 Sr  Co  O  
   6   6  13
Selective dynamics
Direct
  0.0342173679970965 -0.0254250092377824  0.0006140634488101   T   T   T
  0.8055824390340255  0.5385213887131154  0.8183194189482256   T   T   T
  0.6860510350079171 -0.0166507941680629  0.6504463300194782   T   T   T
  0.4806156316587484  0.5166507941680626  0.5162203366471877   T   T   T
  0.3610842276326402 -0.0385213887131160  0.3483472477184398   T   T   T
  0.1324492986695707  0.5254250092377810  0.1660526032178566   T   T   T
  0.7609215757896354  0.2273581911138162  0.2387506632993201   T   T   T
  0.5833333333333333  0.7499999999999994  0.0833333333333340   T   T   T
  0.4057450908770319  0.2726418088861833  0.9279160033673457   T   T   T
  0.2371059221955674  0.7559705060153109  0.7512852458247211   T   T   T
  0.0833333333333331  0.2499999999999996  0.5833333333333328   T   T   T
  0.9295607444710976  0.7440294939846889  0.4153814208419440   T   T   T
  0.9103431726829854  0.0034416646228121  0.2958578365630995   T   T   T
  0.5833333333333338  0.2499999999999998  0.0833333333333339   T   T   T
  0.8865273834604778  0.7971966566386389  0.9083456788139472   T   T   T
  0.4247695313869949  0.7525470730497977  0.9267230269543040   T   T   T
  0.3521856202686325  0.1808281435283536  0.8023329171085762   T   T   T
  0.2563234939836801  0.4965583353771876  0.8708088301035671   T   T   T
  0.5833333333333333  0.7499999999999994  0.5833333333333328   T   T   T
  0.0833333333333343  0.7499999999999982  0.5833333333333347   T   T   T
  0.1825498451484519  0.0348591737439513  0.6180068026979847   T   T   T
  0.8144810463980320  0.3191718564716462  0.3643337495580887   T   T   T
 -0.0158831784817856  0.4651408262560485  0.5486598639686812   T   T   T
  0.2801392832061873  0.7028033433613611  0.2583209878527185   T   T   T
  0.7418971352796712  0.7474529269502010  0.2399436397123625   T   T   T
