Sr Co O 
 1.0000000000000000
    -4.0015529635557776    4.2112634963134994    0.0654706636528708
    -0.1834892653995367    4.1605976187408258    7.9077414310909537
     3.7021730111772788    8.1278638437192861    0.0062003934696753
 Sr  Co  O  
   6   6  13
Selective dynamics
Direct
  0.0487825949058869  0.0126627612938138 -0.0274880319466809   T   T   T
  0.8266564735349233  0.5207290300340340  0.7984394665867260   T   T   T
  0.7089157312438937 -0.0019245368488560  0.6745675877336664   T   T   T
  0.4801667344416344  0.5011367375835397  0.4998979649644358   T   T   T
  0.3543590207340496 -0.0128139400353704  0.3649977168071657   T   T   T
  0.1153958144029412  0.5027041153209216  0.1875254613656912   T   T   T
  0.7436007152309272  0.2066166736326924  0.3117378848348417   T   T   T
  0.5643153133818327  0.7957212518031925  0.0929242679243301   T   T   T
  0.4381478849546810  0.2618551059547699  0.8877424300617300   T   T   T
  0.2094463310847248  0.7238541564673903  0.7684808190734596   T   T   T
  0.0839438072418705  0.2761886824887686  0.5756390602745743   T   T   T
  0.9481648990081609  0.7564076492164491  0.3815727294539074   T   T   T
  0.8153822887916519  0.0045324327184905  0.2793619785380879   T   T   T
  0.8417793365525131  0.7344141034444881  0.9192475960969807   T   T   T
  0.4202570241987915  0.0365430550385001  0.0451111499020546   T   T   T
  0.7919597849399083  0.2048958275577381  0.7610323982928566   T   T   T
  0.2183581525757553  0.2865635371214667  0.7558401492227302   T   T   T
  0.3772973332343618  0.4906907017639854  0.8889584997376491   T   T   T
  0.0958932322596845  0.7592636644463742  0.5613958768752987   T   T   T
  0.3429835018110738 -0.0881152839165601  0.6981423165041474   T   T   T
  0.4046833603643283  0.3101429584966071  0.3823973765457158   T   T   T
  0.9629118567481491  0.2370755545925054  0.3963037188403276   T   T   T
 -0.0860443616701767  0.5259596260171789  0.5120983376643591   T   T   T
  0.2621975796206316  0.7274348449041178  0.1758567697710535   T   T   T
  0.6971122781773028  0.7274613191970951  0.2748830909598443   T   T   T
