Sr Co O 
 1.0000000000000000
    -4.1007195614034488    4.2420804918528932   -0.0532218004475173
    -0.0021439723774780    4.1261962461519239    7.7124186652573750
     3.7136528371928335    8.1026043034019377    0.0741879602954659
 Sr  Co  O  
   6   6  12
Selective dynamics
Direct
 -0.0249885052245732 -0.0193085850511208  0.0186670208202399   T   T   T
  0.8028863074545302  0.5164708075558546  0.8165578542264863   T   T   T
  0.7124186924348258  0.0046634084539490  0.6629052098719806   T   T   T
  0.5052474634620555  0.5227226982997852  0.4909601318607610   T   T   T
  0.3367827003428344 -0.0399989691883056  0.3507468970201432   T   T   T
  0.1663660863515670  0.5103816788500224  0.2009216763009756   T   T   T
  0.8364109840359339  0.3013814995152221  0.2192561720879988   T   T   T
  0.5580864553141290  0.7663501058232601  0.1067780349193512   T   T   T
  0.3432059684671072  0.2575514654874761  0.8977488078667251   T   T   T
  0.2673153148816177  0.7409091199655693  0.7414402545656664   T   T   T
  0.1146021110737690  0.2274128005416139  0.5959135657644451   T   T   T
  0.9149405481615841  0.7281525099186150  0.4361647972194353   T   T   T
 -0.0152641456165600  0.2474068911655045  0.0200345341440469   T   T   T
  0.6068075600186165  0.5124106852977152  0.1604970198612784   T   T   T
  0.5463751288752555  0.0170270355298343 -0.0188871000802291   T   T   T
  0.3726545012315625  0.2549118217618381  0.6654089050295761   T   T   T
  0.3524727537435851  0.4927951804132598  0.8894926032002926   T   T   T
  0.5885330225722657  0.8054453489954355  0.5799592129079173   T   T   T
  0.0927390801542072  0.7322451297168955  0.5947215744467450   T   T   T
  0.1041694065614954 -0.0180659786478399  0.7307542133775915   T   T   T
  1.0018531527552179  0.2076475393861012  0.3918519559927215   T   T   T
 -0.0757451629278058  0.4596033430965112  0.5420585791526608   T   T   T
  0.2126094351746795  0.7781865564405511  0.2413445970190365   T   T   T
  0.7628543733882056  0.7436979583732026  0.2480369165409784   T   T   T
