Sr Co O 
 1.0000000000000000
    -3.7498450180965865    4.0160224372118778    0.2015944155673093
     3.7498450180965865    4.0160224372118796   -0.2015944155673093
     0.6115035937850054   -4.0160224372118787  -12.0506108024323400
 Sr  Co  O  
   6   6  13
Selective dynamics
Direct
  0.0022640805508654  0.0338862497464586  0.0082807516673275   T   T   T
  0.8333333333333317  0.8333333333333369  0.6666666666666667   T   T   T
  0.6644025861158004  0.6327804169202115  0.3250525816660060   T   T   T
  0.4743945019208687  0.5060166711164648  0.0082807516673275   T   T   T
  0.3333333333333329  0.3333333333333350  0.6666666666666669   T   T   T
  0.1922721647457974  0.1606499955502056  0.3250525816660061   T   T   T
  0.8949363999638653  0.4268041461834657  0.8217405461473292   T   T   T
  0.7717302667027999  0.2398625204832042  0.5115927871860033   T   T   T
  0.5643674349885921  0.0792241792455591  0.1435916142341514   T   T   T
  0.4624082068798790  0.8730963170628583  0.8355045239427358   T   T   T
  0.2042584597867870  0.7935703496038109  0.4978288093905977   T   T   T
  0.1022992316780736  0.5874424874211079  0.1897417190991819   T   T   T
  0.7283729630314504  0.1492180763144707  0.8290543637617204   T   T   T
  0.8333333333333328  0.3333333333333348  0.6666666666666672   T   T   T
 -0.1076316030404231  0.0200561153543230  0.4124245123138990   T   T   T
  0.4868303792194139  0.0659852659363988  0.5042789695716127   T   T   T
  0.3333333333333325  0.8333333333333346  0.1666666666666670   T   T   T
  0.4400176375026974  0.0395899387005459 -0.0203924237967565   T   T   T
  0.7742982697070898  0.6466105513123473  0.9209088210194356   T   T   T
  0.1798362874472513  0.6006814007302702  0.8290543637617194   T   T   T
  0.3333333333333320  0.8333333333333346  0.6666666666666663   T   T   T
 -0.0617062963647854  0.5174485903521996  0.5042789695716128   T   T   T
  0.2266490291639691  0.6270767279661217  0.3537257571300897   T   T   T
  0.3333333333333322  0.3333333333333343  0.1666666666666667   T   T   T
  0.8333333333333315  0.3333333333333353  0.1666666666666668   T   T   T
