Sr Co O 
 1.0000000000000000
     3.9336928368460566   -0.0565571788200031    4.1460284048653770
     0.1685769666828900   -7.6727688444256330   -0.0456278859657084
     3.8607799062558139   -0.1182864522910223   -8.2209480493015548
 Sr  Co  O  
   6   6  12
Selective dynamics
Direct
 -0.0376653772272931  0.0324705214798632 -0.0161440366340621   T   T   T
  0.3290548134427734 -0.0378938288767274  0.6520392758356666   T   T   T
  0.7006549380649508 -0.0145268023334941  0.3190369132633476   T   T   T
 -0.0119994613327721  0.5272397923760036  0.0086815228080378   T   T   T
  0.3499776417156600  0.4656513927591798  0.6693981228588070   T   T   T
  0.6913642779931960  0.5031521104997790  0.3575407605351143   T   T   T
  0.5025706559376508  0.7404893856335386 -0.0223301526283102   T   T   T
  0.8367005081871239  0.7631577660573078  0.6669836324130877   T   T   T
  0.1729448382464714  0.7232619127289348  0.3514193748011429   T   T   T
  0.4519845667763082  0.2949489003979129  0.0413685014708314   T   T   T
  0.8870880068676701  0.2307375798411695  0.6656972443532455   T   T   T
  0.1364505690395670  0.2572398918436968  0.3085909446815266   T   T   T
  0.1571113152923202  0.8320178395794351  0.8469323167861078   T   T   T
  0.6454435961002798  0.7058007937396162  0.8049904681802343   T   T   T
  0.5079834263061868  0.8142290547370411  0.4715104370299832   T   T   T
  0.0089353745051335  0.7189189815114688  0.5208772518769194   T   T   T
  0.8734655744116998  0.7921985598895345  0.1563672743929943   T   T   T
  0.3271058482550692  0.1597005305472998  0.1887135216811402   T   T   T
  0.1537709509945916  0.3160216323877805  0.8436730680049820   T   T   T
  0.4375058215431061  0.5486718283117316  0.0887911880979721   T   T   T
  0.6331828202771345  0.1918704436874360  0.7358461862212465   T   T   T
 -0.0118232576960667  0.2038586427720497  0.4912708104520709   T   T   T
  0.8113209837520061  0.2560618278239558  0.1315466888948616   T   T   T
  0.2802049616755070  0.4747213354102756  0.3838652569366334   T   T   T
