Sr Co O 
 1.0000000000000000
     3.6066328353027743    0.0000000000000000    0.0000000000000000
     0.0000000000000000    8.4042561829978109   -0.1472862126103557
     0.0000000000000000   -0.2136239207079312   12.4016829648757199
 Sr  Co  O  
   6   6  12
Selective dynamics
Direct
  0.0000000000000000  0.0142989546535767  0.0302273445529553   T   T   T
  0.0000000000000000  0.0545304888384379  0.3286467378956473   T   T   T
  0.0000000000000000 -0.0443080383833408  0.6432320888512382   T   T   T
  0.0000000000000000  0.5080598917733413 -0.0297081221943483   T   T   T
  0.0000000000000000  0.4808633010268565  0.3579944133345309   T   T   T
  0.0000000000000000  0.5430412110150138  0.6690049210442650   T   T   T
  0.5000000000000001  0.3173118107714153  0.1403311428458904   T   T   T
  0.5000000000000001  0.2277792234059814  0.5469433411154839   T   T   T
  0.5000000000000001  0.2565816927393509  0.8333845195731081   T   T   T
  0.5000000000000001  0.7332182588648910  0.1827691799900130   T   T   T
  0.5000000000000001  0.7725062694062014  0.4659277321927704   T   T   T
  0.5000000000000001  0.7559765997812687  0.8436275818348242   T   T   T
  0.5000000000000001  0.2257864202255939 -0.0105405676106879   T   T   T
  0.5000000000000001 -0.0498124892322983  0.1616789174380074   T   T   T
  0.5000000000000001  0.2729522993847108  0.2831366709020827   T   T   T
  0.0000000000000000  0.3200012709223671  0.5241751109920487   T   T   T
  0.5000000000000001  0.0113416339779537  0.4706921579356368   T   T   T
  0.5000000000000001  0.1524071891041497  0.7032088027771287   T   T   T
  0.5000000000000001  0.5383065481443824  0.1022589978176903   T   T   T
  0.5000000000000001  0.6673054360423183  0.3231356467993452   T   T   T
  0.0000000000000000  0.7084124908082801  0.5066271502801141   T   T   T
  0.5000000000000001  0.7600735731487401  0.6921347532058324   T   T   T
  0.0000000000000000  0.7882336590760324  0.9080781574115909   T   T   T
  0.5000000000000001  0.4851323120511739  0.8230333329700894   T   T   T
