Sr Co O 
 1.0000000000000000
    -3.8638477182312112    4.0367592924149722   -0.0214173844808033
     0.0334264437534812    4.0264908771770793    7.5377370239062609
     3.8533905811260887    8.0634381789331790    0.0120076274349268
 Sr  Co  O  
   6   6  15
Selective dynamics
Direct
  0.0176058649075698 -0.0117318891641873  0.0003516704260710   T   T   T
  0.8388283565460918  0.5068870992507515  0.8257998323507461   T   T   T
  0.6611716434539097 -0.0068870992507515  0.6742001676492548   T   T   T
  0.4823941350924324  0.5117318891641869  0.4996483295739309   T   T   T
  0.3303553541663687  0.0004018603365032  0.3303499826270581   T   T   T
  0.1696446458336324  0.4995981396634963  0.1696500173729426   T   T   T
  0.7500000000000001  0.2499999999999998  0.2500000000000003   T   T   T
  0.5892231374350466  0.7629075197283539  0.0784491738812011   T   T   T
  0.3950142963156109  0.2572869896479782  0.9214018205288863   T   T   T
  0.2499999999999992  0.7499999999999999  0.7499999999999988   T   T   T
  0.1049857036843875  0.2427130103520215  0.5785981794711129   T   T   T
  0.9107768625649542  0.7370924802716469  0.4215508261187987   T   T   T
  0.0783879150444297  0.2453533098022184  0.1081457114988326   T   T   T
  0.6249042891904859  0.2551119156171462  0.0818175474494589   T   T   T
  0.9307406024726719  0.7050840697683902  0.9395196019655380   T   T   T
  0.4397734266902796  0.7361453370204102  0.9344879599251784   T   T   T
  0.5515102400777308  0.0257281881520737 -0.0284323057463261   T   T   T
  0.2500000000000009  0.2499999999999999  0.7500000000000002   T   T   T
  0.3891584883885246  0.4927125286564084  0.8089315078266023   T   T   T
  0.5692593975273281  0.7949159302316096  0.5604803980344615   T   T   T
  0.0602265733097207  0.7638546629795893  0.5655120400748213   T   T   T
  0.1108415116114745  0.0072874713435914  0.6910684921733975   T   T   T
  0.4216120849555712  0.2546466901977812  0.3918542885011679   T   T   T
  0.8750957108095148  0.2448880843828536  0.4181824525505413   T   T   T
 -0.0515102400777308  0.4742718118479254  0.5284323057463272   T   T   T
  0.2500000000000005  0.7499999999999997  0.2500000000000006   T   T   T
  0.7500000000000008  0.7499999999999999  0.2500000000000005   T   T   T
