Sr Co O 
 1.0000000000000000
     3.9710092482489348    0.0165174376483398    4.1091121266533248
    -0.0305827613883416   -8.1823562705473556   -0.0005396350519198
     3.8008891600173995    0.0185803008435970   -8.0493384418224334
 Sr  Co  O  
   6   6  12
Selective dynamics
Direct
  0.0117014061696262  0.0046990672350610 -0.0057771583862402   T   T   T
  0.3235017940135290 -0.0644409537314944  0.6737334588707986   T   T   T
  0.6686195638114512  0.0003039279382853  0.3510276036798640   T   T   T
 -0.0205045454326532  0.5398653888124054 -0.0049064539001035   T   T   T
  0.3275844789670473  0.4840693680472087  0.6644340666535858   T   T   T
  0.6686244534818667  0.5442360816584791  0.3493761801906927   T   T   T
  0.4633106124199021  0.7200302311895180 -0.0026003145522039   T   T   T
  0.8110799664679615  0.7779070758146145  0.6912521056586474   T   T   T
  0.2085145025417578  0.7244753274104220  0.3374439273905447   T   T   T
  0.5532896475238046  0.2711953194191467 -0.0255615902170337   T   T   T
  0.8972241430887323  0.2247157394579550  0.6949749773726691   T   T   T
  0.0269070361447942  0.2941354251448840  0.3064914283704901   T   T   T
  0.3372802912158344  0.8122825774914866  0.1685614983516134   T   T   T
  0.1482060474844183  0.6996893283580832  0.8006730960628818   T   T   T
  0.6978764760144136  0.7908952008510804  0.8955192543366598   T   T   T
  0.5079179312889459  0.6884447239576528  0.5386290273144664   T   T   T
  0.7331684296713757  0.0114115086891513  0.6390884151276109   T   T   T
 -0.0286429501884666  0.7953452591055545  0.4242510999393248   T   T   T
  0.2433830605763849  0.1600233773623626  0.8490962952561677   T   T   T
  0.5688093386619149  0.4955031144274496  0.0622352371532158   T   T   T
  0.7177345931551284  0.3355113423869636  0.8134573773986766   T   T   T
 -0.0522732288750169  0.3140973225094302  0.4997188535582028   T   T   T
  0.8155930555089110  0.1491044370090625  0.1574357390785726   T   T   T
  0.2044272401585959  0.4764997798750192  0.2881125476375708   T   T   T
