Sr Co O 
 1.0000000000000000
     3.6953269681839740    0.0000000000000000    0.0000000000000000
     0.0000000000000000    7.9845940452504243   -0.1962132297560094
     0.0000000000000000   -0.3061641499560678   12.9603355483322353
 Sr  Co  O  
   6   6  12
Selective dynamics
Direct
  0.0000000000000000  0.0178776655955323 -0.0205918516132334   T   T   T
  0.0000000000000000  0.0423402460475718  0.3274699976244188   T   T   T
  0.0000000000000000 -0.0240237752721291  0.7053527856142352   T   T   T
  0.0000000000000000  0.4654186425404903 -0.0376777172309787   T   T   T
  0.0000000000000000  0.4769100855767594  0.3393404823973855   T   T   T
  0.0000000000000000  0.4524018659143901  0.6772735963291755   T   T   T
  0.5000000000000001  0.3250368000308697  0.1608896539605451   T   T   T
  0.5000000000000001  0.2063698775057474  0.5126382578315813   T   T   T
  0.5000000000000001  0.2284653878118110  0.8186028051533819   T   T   T
  0.5000000000000001  0.7735792102744229  0.1663290192366602   T   T   T
  0.5000000000000001  0.7996315731781645  0.5300656359213832   T   T   T
  0.5000000000000001  0.7273084382593911  0.8349229573743981   T   T   T
  0.5000000000000001  0.2564249919845193  0.0267511264147042   T   T   T
  0.5000000000000001  0.2480722353253625  0.2925895481728025   T   T   T
  0.0000000000000000  0.3016687959562014  0.4875291399325146   T   T   T
  0.5000000000000001 -0.0394841248572923  0.4402125147794390   T   T   T
  0.5000000000000001  0.1948931212638569  0.6611892646159948   T   T   T
  0.0000000000000000  0.2291052138757642  0.8355609716885426   T   T   T
  0.5000000000000001 -0.0173663963888436  0.8415397738563416   T   T   T
  0.0000000000000000  0.8636863551517961  0.1570494859020733   T   T   T
  0.5000000000000001  0.5586296184747285  0.2195627491519783   T   T   T
  0.5000000000000001  0.7002723400445423  0.6492697114541942   T   T   T
  0.0000000000000000  0.7366920643232734  0.8837785008255179   T   T   T
  0.5000000000000001  0.4760896333587496  0.8236849383610505   T   T   T
