Sr Co O 
 1.0000000000000000
     4.4926450875565429   -0.0037806931967369    3.8174142330863217
    -4.4756773486699535    3.7678903943420816    3.7810430484903050
    -4.4275282500836752   -7.4281196346515115   -0.0686340849232735
 Sr  Co  O  
   5   5  10
Selective dynamics
Direct
 -0.0206024244113448 -0.0081878018899269 -0.0043504110677926   T   T   T
  0.5906869967238224  0.3723685093336634  0.2090797687956608   T   T   T
  0.2256263306170377  0.8460603173029029  0.4415317091186370   T   T   T
  0.7823595857563665  0.2180741407297136  0.6059361328531925   T   T   T
  0.4168535296842550  0.5790749515437329  0.7767770016023625   T   T   T
  0.3634874547249271  0.1200899930178588  0.7845121560626838   T   T   T
  0.0768359787350391  0.4875224046799579  0.0012399589240501   T   T   T
  0.5714170778712427  0.8544678243341737  0.2540035635124487   T   T   T
  0.1796277755672224  0.3511783868992686  0.3907685065092689   T   T   T
  0.8062117710585036  0.6761126887997120  0.5917584233743474   T   T   T
  0.1726660190919408  0.2335850642123585  0.8831762882203906   T   T   T
 -0.0388320344373556  0.3317482821146242  0.1407268615694057   T   T   T
  0.4338064594470761  0.6401503099157754  0.0680674425812709   T   T   T
  0.3889746352842306  0.0550442645889751  0.2639390363008376   T   T   T
  0.8447199457080253  0.9011808253670710  0.4774885240395099   T   T   T
 -0.0186183632200302  0.4878202193816616  0.5051190028168384   T   T   T
  0.3556257144089449  0.2330593353751709  0.5921421582803901   T   T   T
  0.4546531989305777  0.5686720920071591  0.4305642828000714   T   T   T
  0.5364999948690780  0.9280840387312023  0.7591523400655062   T   T   T
  0.8780003930271220  0.6238942206133353  0.8283672002387075   T   T   T
