Sr Co O 
 1.0000000000000000
     4.1068792257007711   -0.0276222635877066    4.0584228583621229
    -0.0286284850643908   -7.6575087840053913    0.0836772494688378
     4.0363533744695630    0.1069462813747494   -8.0461206356914658
 Sr  Co  O  
   6   6  13
Selective dynamics
Direct
 -0.0648488675581237 -0.0190320457468354  0.0230579114275850   T   T   T
  0.3348540983681617  0.0278651713973177  0.6314551092468504   T   T   T
  0.6806199614453556  0.0083158690814885  0.3344115978909222   T   T   T
 -0.0485116982106287  0.4896453974542413  0.0106681480374292   T   T   T
  0.3878054094613795  0.5092709000201072  0.6333636343745260   T   T   T
  0.7086648983552222  0.4996272860253063  0.3498374670997723   T   T   T
  0.4525225670476882  0.7092587641680992 -0.0339219162340633   T   T   T
  0.8404219899164169  0.7673038953547145  0.7105349550992387   T   T   T
  0.2445001097163552  0.7481447082548635  0.3455486604945499   T   T   T
  0.4749995933699975  0.2785084684956616  0.0394779336686987   T   T   T
  0.8613565614610137  0.2600985625516877  0.6437349658694292   T   T   T
  0.1765622851744137  0.2450267612680798  0.3216801711706018   T   T   T
  0.1267410895607805  0.7461955423194203  0.9208083546682588   T   T   T
  0.5732277456620031  0.8130902856644349  0.8143068479851697   T   T   T
  0.5820635368837213  0.7618140626149994  0.4914799536743535   T   T   T
  0.9354337093616180  0.0377618803600364  0.7166574475481746   T   T   T
  0.7088368337674875  0.7381106393661789  0.1455717261887013   T   T   T
  0.1209743169959027 -0.0336070064478732  0.3496765732863220   T   T   T
  0.2913054943034818  0.1682932934949699  0.1377012510237968   T   T   T
  0.4792143258610030  0.4562029819893117 -0.0903498012853596   T   T   T
  0.5342275477639323  0.2418390187976442  0.4959214278236102   T   T   T
  0.8462372858895270  0.4874319392152992  0.7111548489350722   T   T   T
  0.0568229658125018  0.2955640488954671  0.5083943003337990   T   T   T
  0.8041962676662123  0.2464444615760218  0.1624041482922274   T   T   T
  0.2251052960293552  0.5168252914347382  0.2930910099225165   T   T   T
