Sr Co O 
 1.0000000000000000
     4.0043753824329134   -0.0000000000000003    4.0043753824329125
    -3.9643795627742366    4.0247184702707433    3.9643795627742371
    -3.8826290728813069   -7.8475835255271260   -0.1217463095516048
 Sr  Co  O  
   5   5  11
Selective dynamics
Direct
  0.0097892948745082 -0.0230780763149145  0.0225098360771253   T   T   T
  0.6227201614793469  0.3953594679979962  0.2051088676468366   T   T   T
  0.2176112938325101  0.8046405320020027  0.3948911323531638   T   T   T
  0.7872794587973831  0.2230780763149145  0.5774901639228754   T   T   T
  0.3649728295002332  0.6000000000000008  0.8000000000000006   T   T   T
  0.4773735912215112  0.1000000000000005  0.7999999999999996   T   T   T
 -0.0258870143123218  0.5193349828071738  0.0031880257665331   T   T   T
  0.5886774411894524  0.9101538178414960  0.1795230383811731   T   T   T
  0.2091544028082795  0.2898461821585031  0.4204769616188275   T   T   T
  0.7709249599211462  0.6806650171928266  0.5968119742334679   T   T   T
  0.4119902754124370 -0.0280208038162291 -0.0469941820069832   T   T   T
  0.7973786584704624  0.2749771972617881  0.9540880054330415   T   T   T
  0.8145356405010806  0.7014859712595635  0.1402129005001997   T   T   T
  0.3037923892166987  0.6298278926803588  0.1015078848930789   T   T   T
  0.3889264290445258  0.0734868156672490  0.3014901437439721   T   T   T
  0.8874362853005547  0.1265131843327508  0.2985098562560290   T   T   T
  0.0022845043236189  0.5701721073196403  0.4984921151069212   T   T   T
  0.2589844574194187  0.2280208038162300  0.6469941820069833   T   T   T
  0.4743227400008818  0.4985140287404352  0.4597870994998006   T   T   T
  0.6432906530374197  0.9250228027382110  0.6459119945669584   T   T   T
  0.8944415649185106  0.6000000000000003  0.8000000000000003   T   T   T
