Sr Co O 
 1.0000000000000000
     3.6887247347361707    0.0000000000000000    0.0000000000000000
     0.0000000000000000    8.2764916509601818   -0.0364953874931765
     0.0000000000000000   -0.0525047794436711   12.2196034918366596
 Sr  Co  O  
   6   6  12
Selective dynamics
Direct
  0.0000000000000000 -0.0001530677753554  0.0112173045860482   T   T   T
  0.0000000000000000 -0.0150632448138336  0.3373460906252341   T   T   T
  0.0000000000000000 -0.0019116471002066  0.6395495260492612   T   T   T
  0.0000000000000000  0.5231273484489475 -0.0072120215139497   T   T   T
  0.0000000000000000  0.5253432990569875  0.3426430444445211   T   T   T
  0.0000000000000000  0.5522134493976733  0.6886071198392740   T   T   T
  0.4999999999999999  0.2747018365567378  0.1956399125322107   T   T   T
  0.4999999999999999  0.2586534024589776  0.5062330725114752   T   T   T
  0.4999999999999999  0.2516252173093925  0.8423198351473069   T   T   T
  0.4999999999999999  0.7153389608100194  0.1723046293486257   T   T   T
  0.4999999999999999  0.7673258855308528  0.5003461899211771   T   T   T
  0.4999999999999999  0.8082216369100594  0.8312094041597973   T   T   T
  0.4999999999999999  0.0464133230118749 -0.1182969036032820   T   T   T
  0.0000000000000000  0.1753852434515036  0.1726048256452959   T   T   T
  0.4999999999999999  0.3314283021474727  0.3547452508920360   T   T   T
  0.0000000000000000  0.2932110859211083  0.5746995815950137   T   T   T
  0.4999999999999999  0.0163628526601171  0.4932412797746304   T   T   T
  0.0000000000000000  0.7730199331138704  0.1311251617195719   T   T   T
  0.4999999999999999  0.4864430508578945  0.1219123748167369   T   T   T
  0.4999999999999999  0.7685378794030542  0.3270134667546913   T   T   T
  0.0000000000000000  0.6963645052415357  0.5066643048941977   T   T   T
  0.4999999999999999  0.7827242612459979  0.6744023436539973   T   T   T
  0.0000000000000000  0.7596244332530256  0.8743412805836934   T   T   T
  0.4999999999999999  0.4610619036709150  0.8273429138668414   T   T   T
