Sr Co O 
 1.0000000000000000
     4.0840664473570252    0.0837560367751731    3.9913868999675439
     4.1727716318472527   -3.9601913007993166   -4.1681175043729528
     4.0011226322806417    7.3296140993247381   -3.7316948658410234
 Sr  Co  O  
   6   6  13
Selective dynamics
Direct
 -0.0372902346106576 -0.0109175083501233  0.0012108322344028   T   T   T
  0.5372902346106568  0.6775841750167884  0.8321225010989295   T   T   T
 -0.0083249939202198  0.3183250594303279  0.6636873253135305   T   T   T
  0.5005823322949152  0.0189983227239349  0.4780364931200909   T   T   T
 -0.0005823322949144  0.6476683439427324  0.3552968402132428   T   T   T
  0.5083249939202208  0.3483416072363383  0.1696460080198023   T   T   T
  0.4947137917225242  0.7900920401619989  0.1773875949630074   T   T   T
 -0.0122764768005535  0.4813251688783109  0.0259933040863003   T   T   T
  0.5122764768005553  0.1853414977883553  0.8073400292470321   T   T   T
  0.0052862082774781  0.8765746265046684  0.6559457383703261   T   T   T
  0.4939765960190968  0.4788079561679842  0.5056977051697955   T   T   T
  0.0060234039809053  0.1878587104986823  0.3276356281635377   T   T   T
  0.2500214926832455  0.6747136520404849  0.0728510673188099   T   T   T
  0.7577773931181385  0.6713839632779924  0.0725912501821485   T   T   T
  0.7500000000000024  0.3333333333333333  0.9166666666666661   T   T   T
  0.2499785073167558 -0.0080469853738184  0.7604822660145224   T   T   T
  0.3965064765123101  0.4072189005807860  0.7074006131956406   T   T   T
  0.7422226068818655 -0.0047172966113259  0.7607420831511843   T   T   T
  0.8715393427113641  0.6461779987277755  0.6302723129045614   T   T   T
  0.0405331345128664 -0.0358615764661449  0.4533757644042707   T   T   T
  0.2500000000000013  0.3333333333333334  0.4166666666666668   T   T   T
  0.4594668654871354  0.7025282431328117  0.3799575689290627   T   T   T
  0.7500000000000024  0.3333333333333333  0.4166666666666668   T   T   T
  0.6284606572886408  0.0204886679388918  0.2030610204287716   T   T   T
  0.1034935234876917  0.2594477660858808  0.1259327201376923   T   T   T
