Sr Co O 
 1.0000000000000000
    -3.9496495727499612    4.0472890284638590    0.0297086368510771
    -0.1882306725797723    3.9193284927876109    7.9645848725103852
     3.7721934532027972    7.9182139992536476   -0.1326907049632950
 Sr  Co  O  
   6   6  12
Selective dynamics
Direct
 -0.0149810849425528 -0.0063776523428626  0.0014043270614725   T   T   T
  0.8375204148641816  0.5094415681807558  0.7895205336946440   T   T   T
  0.6395929177017766 -0.0016329734589684  0.6676089576454639   T   T   T
  0.5081389680278104  0.5064872593939008  0.4994367226800783   T   T   T
  0.3498161580887733 -0.0231267733523019  0.3564153716660827   T   T   T
  0.1999237272841437  0.5051410308440974  0.1651000867964920   T   T   T
  0.8392084307360652  0.2239834651503773  0.2635397362171219   T   T   T
  0.5509924183351799  0.7928008852703803  0.0882060676384516   T   T   T
  0.3225358384482072  0.2655189087956611  0.9191901535548268   T   T   T
  0.2970273832733447  0.7437220596908707  0.7585852079669517   T   T   T
  0.0600911025072127  0.2281774933062093  0.5949174140292394   T   T   T
  0.9208059341365317  0.7518899098497713  0.3822227776645310   T   T   T
  0.7845736242294437  0.0178526341769998  0.3149123520897212   T   T   T
 -0.0232435332231500  0.3633361634922646  0.0631377135506235   T   T   T
  0.4653520988819692  0.7315597095397586  0.9301600322869207   T   T   T
  0.5143070013896827  0.0473525564427969  0.0205442127774595   T   T   T
  0.2238970955533146  0.2036233581563293  0.7584455356209858   T   T   T
  0.3811394744403091  0.4935335772419716  0.8066497731770255   T   T   T
  0.6115363638324296  0.7520966633597753  0.5666560973564456   T   T   T
  0.0853191862767081 -0.0321879181222346  0.6846326069968914   T   T   T
  0.8302073980554419  0.2476402990568558  0.4700164588543864   T   T   T
  0.0687426129470392  0.4578694441600873  0.4957837409204250   T   T   T
  0.2853379900155757  0.7443912940855683  0.3042723878276309   T   T   T
  0.8454918571845241  0.7269070427723828  0.1819749803258759   T   T   T
