Sr Co O 
 1.0000000000000000
    -4.0351530321160043    3.9073302349905470    0.0295154169582929
    -0.2030806452862284    3.7615040443557430    7.8063599119799836
     4.0131991928645263    7.7867861634200990   -0.2396545022513187
 Sr  Co  O  
   6   6  12
Selective dynamics
Direct
 -0.0099864770005057 -0.0451733620912974  0.0600194812377174   T   T   T
  0.8328218628623508  0.5048603273681931  0.8258789007588375   T   T   T
  0.6627517597695051  0.0158604777546023  0.6482716912983505   T   T   T
  0.5236359376142387  0.5268376111995605  0.4691460942530347   T   T   T
  0.3261075030973790 -0.0064186302494947  0.3412088596522729   T   T   T
  0.1556424353045505  0.5047761483447215  0.1754870666093895   T   T   T
  0.7293826834586961  0.2574002932365431  0.2432328877323669   T   T   T
  0.5804216411218570  0.7385364778602522  0.0939376107153674   T   T   T
  0.5030431594200194  0.1905491466432683  0.9354589150726061   T   T   T
  0.2583268994855176  0.7929088524289560  0.7387493176021737   T   T   T
  0.0181924733467236  0.2684429863336692  0.5772866168637260   T   T   T
  0.9181200082545879  0.7402207670742529  0.4292798711787995   T   T   T
  0.8334189354698884  0.0184836926518017  0.3499652437840735   T   T   T
  0.5068550699020158  0.2214119167995016  0.1317557031627122   T   T   T
  0.6335350988981689  0.4948746438013403  0.1214472145113775   T   T   T
  1.0201413939836614  0.7014641214517746  0.9018426586472023   T   T   T
  0.4560741216062061 -0.0229097404383539 -0.0449984067495210   T   T   T
  0.6638931716242342  0.2976806504089440  0.7289830382053146   T   T   T
  0.5998999526922640  0.7329147776631254  0.6274960174532230   T   T   T
  0.2076779178216699  0.0334070213560751  0.6282202607538847   T   T   T
  0.9098650872652627  0.3007668088349301  0.3688549928657857   T   T   T
  0.0858544379554052  0.4855184425050450  0.5437090955396012   T   T   T
  0.2463666716775693  0.7530361980444351  0.2665642086683800   T   T   T
  0.7546248656943191  0.7445502832042983  0.2548693631284698   T   T   T
