Sr Co O 
 1.0000000000000000
    -3.6895101087437485    4.1921352947241664    0.0537027370845655
    -0.2354953247699670    4.0503367620035799    7.9245741232515687
     3.6462850494478407    8.3379076909386569   -0.2474417496029528
 Sr  Co  O  
   6   6  12
Selective dynamics
Direct
  0.0072524296360284 -0.0459933747321764  0.0390660789192403   T   T   T
  0.9050136104543582  0.4829811623131012  0.8406177444029406   T   T   T
  0.6135138200807854  0.0448245488735216  0.6420379902457092   T   T   T
  0.4701547701277204  0.5242163278108566  0.4645153799528590   T   T   T
  0.3187014086511682 -0.0187050002647945  0.3135904016649613   T   T   T
  0.1583421846643173  0.4988805979228649  0.1936938269712410   T   T   T
  0.7487009764917403  0.2430272585917904  0.2403585245550603   T   T   T
  0.6278724463381028  0.7299682152620884  0.0881495264037574   T   T   T
  0.5011397215776295  0.2144897368794102  0.9183560217422307   T   T   T
  0.1249839292035068  0.8222936111952656  0.7317381031355938   T   T   T
  0.0125167868760360  0.2606908686819855  0.5747613171215453   T   T   T
  0.8935446243896076  0.7547415485604123  0.4227412069587621   T   T   T
  0.7348533710780338  0.0172623348297659  0.3483693505335372   T   T   T
  0.6583170537423052  0.2473257068892281  0.0426368755378762   T   T   T
  0.6741408182748179  0.4757737329053787  0.1621989305589054   T   T   T
  1.0330988408618054  0.6839857357824721  0.9451433320326532   T   T   T
  0.5066450564458725 -0.0200976722586602 -0.0227554225731896   T   T   T
  0.3664960081981424  0.3157085268636418  0.7435140483157775   T   T   T
  0.0578429085510412  0.7697257124393811  0.5774700739258901   T   T   T
  0.1428987652508942  0.0410635449693275  0.7004128909238009   T   T   T
  0.9277179728222738  0.2402131022750223  0.3963933390085683   T   T   T
 -0.0393710960096595  0.4868381686216121  0.5393139286216193   T   T   T
  0.2484484320873141  0.7421929262250055  0.2322690009552421   T   T   T
  0.7238419327298380  0.7385924466862813  0.2820742667593134   T   T   T
