Sr Co O 
 1.0000000000000000
    -4.1616200467354059    3.9724876317825868    3.8878435371281834
    -4.1407584523828955   -3.9551989470047038    3.8945144682815034
     3.9294327255801371   -0.0151002035148669    7.5590159946419231
 Sr  Co  O  
   6   6  13
Selective dynamics
Direct
 -0.0035279762466840  0.0237465838871609 -0.0091625665086354   T   T   T
  0.1773350201867089  0.2002681013793534  0.3129111054836334   T   T   T
  0.3217864293140719  0.3458690879416712  0.6909884757643002   T   T   T
  0.5476626641174448  0.4497421463537874  0.0114880835391650   T   T   T
  0.6589392304471738  0.6630046748132756  0.3153428567562417   T   T   T
  0.8004042587117403  0.8106369808242273  0.6856217338882269   T   T   T
  0.1889294476241115  0.6613539799859051  0.3280066482535809   T   T   T
  0.3400475748246758  0.7808861330715878  0.7251960998668034   T   T   T
  0.4993077054693197  0.0018964815334322  0.0052838685662944   T   T   T
  0.6896289065286476  0.1830345401737390  0.3356755218045392   T   T   T
  0.8058394087734519  0.3252374158014857  0.6582961139314123   T   T   T
 -0.0102470068720625  0.5065101167559124 -0.0134980896859883   T   T   T
  0.2801829352679616  0.8640210604437747  0.1908069089194997   T   T   T
  0.3754577266386183  0.9806449229527217  0.8114527589870273   T   T   T
  0.6727898811956460  0.1592445479802498  0.8420546588480847   T   T   T
  0.2531546937735994  0.3256223814223180  0.0153878905934018   T   T   T
  0.6145475047495451  0.0409161153863929  0.2045935275280142   T   T   T
  0.8671831981411700  0.3298418388169620  0.1631875330250703   T   T   T
  0.4190678774159348  0.4070172619505840  0.3643860193718949   T   T   T
  0.8511006765199605  0.1392141543122827  0.5025248610846516   T   T   T
 -0.0241732884027235  0.5744462649103972  0.4419312265250878   T   T   T
  0.5606293330516194  0.5910975537494642  0.6241294540301766   T   T   T
  0.9468234659880115  0.3822420499444641  0.8036762048517552   T   T   T
  0.1049898452172325  0.7072468797590298  0.8232196187055155   T   T   T
  0.7288071426720383  0.7129253705889332 -0.0001671821801569   T   T   T
