Sr Co O 
 1.0000000000000000
    -4.0077121963176143    4.0077121963176232   -0.0000000000000001
    -0.0644353221146348    3.9432768742029856    7.9656415168942294
     3.7720772646497531    7.7797894609673763    0.0215930916027199
 Sr  Co  O  
   6   6  13
Selective dynamics
Direct
  0.0219987789508577  0.0079835599337764 -0.0279482764313538   T   T   T
  0.8668818719925102  0.4999999999999994  0.8333333333333329   T   T   T
  0.6687007291199478 -0.0079835599337763  0.6946149430980207   T   T   T
  0.5257411751067823  0.4871344606862407  0.5055159196194454   T   T   T
  0.2782180829798934  0.0000000000000001  0.3333333333333333   T   T   T
  0.1850582220791355  0.5128655393137583  0.1611507470472215   T   T   T
  0.7436503274535118  0.2786338768132708  0.2608199699682471   T   T   T
  0.5975684219638618  0.7632772164498878  0.1126981179301608   T   T   T
  0.3783894474111014  0.2594184486973380  0.9200249188098149   T   T   T
  0.2244994815849200  0.7405815513026613  0.7466417478568522   T   T   T
  0.1402104230105778  0.2367227835501111  0.5539685487365054   T   T   T
  0.9497708409016962  0.7213661231867281  0.4058466966984194   T   T   T
  0.0312347137423542  0.2358854286608720  0.0866302465347634   T   T   T
  0.6269838252905006  0.5154922497532488  0.1719464064278854   T   T   T
  0.9196628521198245  0.7376291179547593  0.9389155162994363   T   T   T
  0.5687438624019731  0.0335356410274584 -0.0095979085590729   T   T   T
  0.2628741530406867  0.2623708820452391  0.7277511503672306   T   T   T
  0.4204338745944236  0.4999999999999994  0.8333333333333331   T   T   T
  0.0204170556046577  0.7641145713391270  0.5800364201319038   T   T   T
  0.2593482615370256 -0.0335356410274582  0.6762645752257396   T   T   T
  0.4239419976914351  0.2293101671120056  0.3347703652705345   T   T   T
  0.8707113778384432  0.2090874998767953  0.4660496358907190   T   T   T
 -0.0189108518616977  0.4845077502467493  0.4947202602387812   T   T   T
  0.2125151802726237  0.7909125001232044  0.2006170307759473   T   T   T
  0.6546891967406420  0.7706898328879936  0.3318963013961319   T   T   T
