Sr Co O 
 1.0000000000000000
    -3.8424968878825827    3.9203482805761483   -0.0170737148888207
     0.0156969391466565    3.9015671645456265    7.9753160623615020
     3.8192241993522908    7.8178624561466226    0.0006148061237911
 Sr  Co  O  
   6   6  16
Selective dynamics
Direct
  0.0000000000000000  0.0000000000000000  0.0000000000000000   T   T   T
  0.8181852629609622  0.5060105852630707  0.8207971240130083   T   T   T
  0.6615144276062243  0.0053629082604813  0.6640419103837922   T   T   T
  0.5000000000000001  0.4999999999999991  0.5000000000000003   T   T   T
  0.3384855723937751 -0.0053629082604812  0.3359580896162075   T   T   T
  0.1818147370390383  0.4939894147369267  0.1792028759869929   T   T   T
  0.7394439524756609  0.2482035194221935  0.2602180273427016   T   T   T
  0.5687153921116295  0.7537387154922006  0.0867503009150262   T   T   T
  0.4312846078883707  0.2462612845077973  0.9132496990849742   T   T   T
  0.2605560475243395  0.7517964805778041  0.7397819726572995   T   T   T
  0.0762973375230550  0.2527524705408019  0.5829821267914164   T   T   T
  0.9237026624769459  0.7472475294591964  0.4170178732085848   T   T   T
  0.8479908682256140  0.0241156317527960  0.2988134118654095   T   T   T
  0.5414445832803718  0.2546084576393282  0.0826288046510636   T   T   T
  0.7057573930637522  0.4728235999813905  0.1559656406461782   T   T   T
  0.4585554167196283  0.7453915423606690  0.9173711953489369   T   T   T
  0.5000000000000001 -0.0000000000000000 -0.0000000000000000   T   T   T
  0.7447523906253765  0.2569904479157379  0.7255344361440595   T   T   T
  0.2014332051687351  0.2579681712466230  0.8020324806024248   T   T   T
  0.2942426069362484  0.5271764000186068  0.8440343593538218   T   T   T
  0.5855346937103436  0.7582742459563003  0.5476325017569639   T   T   T
  0.0351859029766879  0.7610570988840879  0.6111535738604700   T   T   T
  0.1520091317743856 -0.0241156317527959  0.7011865881345904   T   T   T
  0.4144653062896558  0.2417257540436971  0.4523674982430363   T   T   T
  0.9648140970233122  0.2389429011159102  0.3888464261395312   T   T   T
 -0.0000000000000001  0.4999999999999991  0.5000000000000003   T   T   T
  0.2552476093746240  0.7430095520842602  0.2744655638559410   T   T   T
  0.7985667948312648  0.7420318287533758  0.1979675193975760   T   T   T
