Sr Co O 
 1.0000000000000000
    -4.0779811953440941    4.0063047745728468   -0.0230929279304864
    -0.0300181107821838    3.9318493388976767    7.9121074139814676
     3.9103871982915539    7.8461652230784154   -0.0063070848081357
 Sr  Co  O  
   6   6  12
Selective dynamics
Direct
 -0.0300546967029876 -0.0083657264395913 -0.0019902290671400   T   T   T
  0.8510468287066478  0.5341231024936094  0.8108639253613487   T   T   T
  0.6861737830030624 -0.0141203755637038  0.6593674415744195   T   T   T
  0.4777211634529346  0.5314935174500365  0.5276637225422278   T   T   T
  0.3147245271109340 -0.0306102109503948  0.3341765013555535   T   T   T
  0.1677294743059526  0.5302747822897480  0.1713005204271230   T   T   T
  0.8413017219222041  0.2861402864741763  0.2174607511840261   T   T   T
  0.6026087890623401  0.7198391565371139  0.1036322329241689   T   T   T
  0.3930487607485096  0.2796513569787484  0.9162972629082553   T   T   T
  0.2345375387835323  0.7730298156212146  0.7433917572072364   T   T   T
  0.0341932680103448  0.2388417708303605  0.5956903487059384   T   T   T
  0.9239983783566986  0.7277090386040550  0.4212750813217164   T   T   T
  0.1251309681411940  0.1852031653270986  0.0726521730670564   T   T   T
  0.6256870230870847  0.4788656131759872  0.1224593969656347   T   T   T
  0.8633165012061240  0.7844948256531580  0.9046498344532666   T   T   T
  0.7032695655383808  0.2286825878281497  0.7830349651631782   T   T   T
  0.2843495824864813  0.5149835302758482  0.8600489771378421   T   T   T
  0.5945713782871926  0.7449153587222360  0.6043478250895103   T   T   T
  0.0905261005592784  0.7728065677728753  0.5570142290916076   T   T   T
  0.2302822242309048  0.0173405371869761  0.7097519257146616   T   T   T
  0.9272569151300332  0.1894413122705252  0.4252284013666756   T   T   T
  0.0885272518462378  0.4642894465059448  0.5076032644366110   T   T   T
  0.2447026406315223  0.7791092275452527  0.1959064659919633   T   T   T
  0.7253502738541251  0.7718612038979723  0.2581732302564880   T   T   T
