Sr Co O 
 1.0000000000000000
     3.6282527694076099    0.0000000000000000    0.0000000000000000
     0.0000000000000000    8.6924349239126553   -0.0391749001261669
     0.0000000000000000   -0.0609942989387429   11.6289801854063093
 Sr  Co  O  
   6   6  12
Selective dynamics
Direct
  0.0000000000000000 -0.0354097825683827 -0.0055967807917548   T   T   T
  0.0000000000000000  0.0453471510373649  0.3292603464508813   T   T   T
  0.0000000000000000  0.0208451476443458  0.6587819967745092   T   T   T
  0.0000000000000000  0.5145031159686734 -0.0149123050069994   T   T   T
  0.0000000000000000  0.5019231635551079  0.2878277582590870   T   T   T
  0.0000000000000000  0.5153634733734626  0.6899256668098295   T   T   T
  0.5000000000000010  0.2396693551678232  0.1519219535943617   T   T   T
  0.5000000000000010  0.2524001993967266  0.4969351342754062   T   T   T
  0.5000000000000010  0.2373295573560742  0.8743893228629913   T   T   T
  0.5000000000000010  0.7807060236629623  0.1866287840025313   T   T   T
  0.5000000000000010  0.7795444239838937  0.4877125774229081   T   T   T
  0.5000000000000010  0.7849410248673202  0.8016852751590866   T   T   T
  0.5000000000000010  0.0199266295339894  0.1546684653515748   T   T   T
  0.5000000000000010  0.2676009027316166  0.3282364062084108   T   T   T
  0.0000000000000000  0.2825870245884580  0.5616701113052834   T   T   T
  0.5000000000000010  0.0045266353757559  0.4910611701763854   T   T   T
  0.0000000000000000  0.2317813017321985  0.9532921979056459   T   T   T
  0.5000000000000010  0.0207294865176478  0.8082854532722300   T   T   T
  0.0000000000000000  0.7401285444050070  0.1362008206795641   T   T   T
  0.5000000000000010  0.4481402244920815  0.1300435016998059   T   T   T
  0.5000000000000010  0.6919394472336733  0.3443560123918881   T   T   T
  0.5000000000000010  0.7116569301253381  0.6365654506770124   T   T   T
  0.0000000000000000  0.7451676520839957  0.8526204601895000   T   T   T
  0.5000000000000010  0.4486523704433869  0.8251068583182017   T   T   T
