Sr Co O 
 1.0000000000000000
     3.6621160989206447    0.0000000000000000    0.0000000000000000
     0.0000000000000000    8.5717455452297528   -0.0333933676047615
     0.0000000000000000   -0.0576915991582579   11.6065192930985379
 Sr  Co  O  
   6   6  12
Selective dynamics
Direct
  0.0000000000000000 -0.0199604618482711  0.0304181057987747   T   T   T
  0.0000000000000000 -0.0199490719857326  0.3415919766573008   T   T   T
  0.0000000000000000 -0.0073293732038985  0.6469229190388299   T   T   T
  0.0000000000000000  0.4881181847636707 -0.0084403223137175   T   T   T
  0.0000000000000000  0.4993887876465723  0.3561377357982696   T   T   T
  0.0000000000000000  0.4642519412297907  0.6607969613556464   T   T   T
  0.5000000000000009  0.2567272306221808  0.1745910903869487   T   T   T
  0.5000000000000009  0.2321649945152774  0.4968843347624642   T   T   T
  0.5000000000000009  0.2473768294195418  0.8384141935446792   T   T   T
  0.5000000000000009  0.7012658676103342  0.1766161188708796   T   T   T
  0.5000000000000009  0.7409146805191894  0.5170039035380356   T   T   T
  0.5000000000000009  0.7211330741216704  0.8359469986225747   T   T   T
  0.5000000000000009  0.0493784186120495  0.1698407609591300   T   T   T
  0.5000000000000009  0.4658370425027195  0.1703863373632520   T   T   T
  0.0000000000000000  0.2417001782430152  0.4359348645163159   T   T   T
  0.5000000000000009 -0.0094857687634040  0.4843191742125979   T   T   T
  0.5000000000000009  0.2219501616544775  0.6729258700871472   T   T   T
  0.0000000000000000  0.2043319952735533  0.9050774671191513   T   T   T
  0.0000000000000000  0.7453487971382852  0.1842455449913935   T   T   T
  0.0000000000000000  0.7430677742347415  0.4651981517070812   T   T   T
  0.5000000000000009  0.4958472784979125  0.5092486957194806   T   T   T
  0.5000000000000009  0.7953586116349118  0.6838012630597923   T   T   T
  0.0000000000000000  0.7576262111718738  0.9063132550810848   T   T   T
  0.5000000000000009  0.4849367016756019  0.8458246039057846   T   T   T
