Sr Co O 
 1.0000000000000000
     3.6990775337842079    0.0000000000000000    0.0000000000000000
     0.0000000000000000    8.6946187496865832   -0.1209098595634784
     0.0000000000000000   -0.1347141715795379   11.7600933798997467
 Sr  Co  O  
   6   6  12
Selective dynamics
Direct
  0.0000000000000000 -0.0136868544315026 -0.0258455141080447   T   T   T
  0.0000000000000000  0.0219689251474427  0.3311738102648797   T   T   T
  0.0000000000000000  0.0375313230735800  0.6691090905233521   T   T   T
  0.0000000000000000  0.4794771200832685 -0.0123257157631387   T   T   T
  0.0000000000000000  0.4425408665201604  0.2876282156584636   T   T   T
  0.0000000000000000  0.4673690556403682  0.6916132146044950   T   T   T
  0.4999999999999998  0.1950849720126718  0.1535981614692582   T   T   T
  0.4999999999999998  0.2955884264266712  0.4908913632562584   T   T   T
  0.4999999999999998  0.2294097098584777  0.8270621837152133   T   T   T
  0.4999999999999998  0.7519502649113944  0.1579710671473791   T   T   T
  0.4999999999999998  0.7738194680498088  0.5377091085377369   T   T   T
  0.4999999999999998  0.7476485041898286  0.8211172263901588   T   T   T
  0.0000000000000000  0.2413546738613163  0.1167957991234771   T   T   T
  0.4999999999999998  0.2360330867925537  0.3210956373878667   T   T   T
  0.0000000000000000  0.3762105219334139  0.4859908822373292   T   T   T
  0.4999999999999998 -0.0586402975451319  0.4582484880860880   T   T   T
  0.4999999999999998  0.2307668656250657  0.6482350734795307   T   T   T
  0.0000000000000000  0.2205848579859729  0.8504655617751775   T   T   T
  0.4999999999999998 -0.0121184903023560  0.8209791393537594   T   T   T
  0.4999999999999998  0.9558772911913898  0.1465783404594358   T   T   T
  0.4999999999999998  0.5492773442675383  0.1594529926949857   T   T   T
  0.4999999999999998  0.6602320703590514  0.6589357281477920   T   T   T
  0.0000000000000000  0.7264092551351040  0.8842064051167193   T   T   T
  0.4999999999999998  0.4453111441409483  0.8526469166799918   T   T   T
