Sr Co O 
 1.0000000000000000
    -3.6586557867848386    0.0000000000000000    0.0000000000000000
     0.0000000000000000    3.8031315756038246    8.4547601480830359
     0.0000000000000000    7.8655578682123037   -4.3512611046269285
 Sr  Co  O  
   5   5  10
Selective dynamics
Direct
 -0.0000000000000000 -0.0306075359400357  0.0063115002745289   T   T   T
 -0.0000000000000000  0.3669585682857890  0.7561632591710604   T   T   T
 -0.0000000000000000  0.8052106811196164  0.6120700967577782   T   T   T
 -0.0000000000000000  0.2296778099703725  0.3641414247390859   T   T   T
 -0.0000000000000000  0.6275608799630603  0.2428728847383183   T   T   T
  0.5000000000000002  0.3296251029354668  0.0800214779928060   T   T   T
  0.5000000000000002  0.6671647447928417  0.9250569911140187   T   T   T
  0.5000000000000002  0.1004940026395342  0.6903620016129035   T   T   T
  0.5000000000000002  0.5154694997741424  0.4940589042046256   T   T   T
  0.5000000000000002  0.9028989644103531  0.3159913805421695   T   T   T
  0.5000000000000002  0.1383745610217854  0.1135129039104843   T   T   T
  0.5000000000000002  0.4629643294702443 -0.0705428519439750   T   T   T
  0.5000000000000002  0.8195577134322450  0.8086267640343396   T   T   T
 -0.0000000000000000  0.0811734832547217  0.7525335176361473   T   T   T
  0.5000000000000002  0.2593278259320618  0.5685159549614394   T   T   T
 -0.0000000000000000  0.5296349981131367  0.5662897040328273   T   T   T
  0.5000000000000002  0.4267188072118270  0.2767958232580971   T   T   T
  0.5000000000000002  0.7244287607241494  0.4297638584613240   T   T   T
 -0.0000000000000000  0.9660841877868824  0.3525086439267948   T   T   T
  0.5000000000000002  0.7772823283514588  0.1149457959297046   T   T   T
