Sr Co O 
 1.0000000000000000
     3.9663036225968282    3.7745124903918930    0.0000000000000000
     4.0096379514721479   -3.8184893124348411    0.0000000000000000
     0.0000000000000000    0.0000000000000000  -13.0956483941469344
 Sr  Co  O  
   6   6  13
Selective dynamics
Direct
 -0.0288116481643446 -0.0015967331354053  0.0234125034011756   T   T   T
  0.0098754717212639  0.0047556361011274  0.6264042844381131   T   T   T
  0.0010080543330044 -0.0084626197755863  0.3540033170832912   T   T   T
  0.5288116481643441  0.5015967331354056  0.0234125034011756   T   T   T
  0.4901245282787360  0.4952443638988733  0.6264042844381131   T   T   T
  0.4989919456669971  0.5084626197755885  0.3540033170832912   T   T   T
  0.6171437566918961  0.0044154738682315  0.8132722070594466   T   T   T
  0.4995813328557079 -0.0005518239010334  0.4829227541774579   T   T   T
  0.5173252485897848  0.0309672529533211  0.1853371870548936   T   T   T
 -0.1171437566918960  0.4955845261317695  0.8132722070594466   T   T   T
  0.0004186671442916  0.5005518239010340  0.4829227541774579   T   T   T
 -0.0173252485897852  0.4690327470466796  0.1853371870548936   T   T   T
  0.4953126719378289  0.0095264279411072  0.6858781790437948   T   T   T
  0.2499999999999996  0.7500000000000003  0.4987944946686625   T   T   T
  0.2500000000000001  0.2500000000000004  0.4965576234575582   T   T   T
  0.4661328922458549 -0.0241830009824494  0.3247028013538743   T   T   T
  0.2500000000000001  0.2500000000000004  0.1223478371729096   T   T   T
  0.7499999999999998  0.2500000000000016  0.8957620562770694   T   T   T
  0.7499999999999997  0.7500000000000013  0.8957614276711252   T   T   T
  0.0046873280621713  0.4904735720588940  0.6858781790437948   T   T   T
  0.7499999999999998  0.2500000000000016  0.4870143503454264   T   T   T
  0.7499999999999997  0.7500000000000013  0.4955793991999413   T   T   T
  0.0338671077541443  0.5241830009824497  0.3247028013538743   T   T   T
  0.7499999999999998  0.2500000000000016  0.1407869240349220   T   T   T
  0.7499999999999997  0.7500000000000013  0.1421961374521766   T   T   T
