Sr Co O 
 1.0000000000000000
    -3.6846195196212399    0.0000000000000000    0.0000000000000000
     0.0000000000000000    4.0369253111105126    4.0127420211949811
     0.0000000000000000   16.0837291422145903  -15.9861793511675199
 Sr  Co  O  
   8   8  21
Selective dynamics
Direct
 -0.0000000000000000 -0.0364019617131083  0.0017654397313121   T   T   T
 -0.0000000000000000  0.4530455114473902  0.8888991802902062   T   T   T
 -0.0000000000000000  0.0213606053533694  0.7404334028581132   T   T   T
 -0.0000000000000000  0.4975442726587028  0.6147328773712901   T   T   T
 -0.0000000000000000  0.0031160726731650  0.4975610859933058   T   T   T
 -0.0000000000000000  0.5089948363156576  0.3748427732028124   T   T   T
 -0.0000000000000000  0.0172679736178714  0.2539261603896936   T   T   T
 -0.0000000000000000  0.5137612253102413  0.1302322804596797   T   T   T
  0.5000000000000003  0.4904645801447062  0.0029257624293510   T   T   T
  0.5000000000000003 -0.0226444664823222  0.8821805882486545   T   T   T
  0.5000000000000003  0.5095458329793944  0.7431350863639605   T   T   T
  0.5000000000000003  0.0034861068055606  0.6208717974633481   T   T   T
  0.5000000000000003  0.5033934583681207  0.4966165940464752   T   T   T
  0.5000000000000003  0.0082324021308472  0.3753248839914503   T   T   T
  0.5000000000000003  0.5155279640998400  0.2531195258639458   T   T   T
  0.5000000000000003 -0.0077845370140875  0.1291216779350096   T   T   T
 -0.0000000000000000  0.4395409905796251  0.0135899608456602   T   T   T
  0.5000000000000003  0.2144505183084614  0.9439967530820567   T   T   T
  0.5000000000000003  0.7010655324823649  0.9298053552533024   T   T   T
 -0.0000000000000000  0.0063527818022610  0.8525771490236068   T   T   T
 -0.0000000000000000  0.4879380677814650  0.7772548427439566   T   T   T
  0.5000000000000003  0.2605862114406530  0.6916435324179244   T   T   T
  0.5000000000000003  0.7759025431648483  0.6993175356627449   T   T   T
 -0.0000000000000000  0.0038766274171888  0.6262031650671553   T   T   T
  0.5000000000000003  0.7455345906456700  0.5657181127736332   T   T   T
  0.5000000000000003  0.2512851258223242  0.5610759659771155   T   T   T
 -0.0000000000000000  0.5025878774911265  0.4991688045537158   T   T   T
  0.5000000000000003  0.2553757994861849  0.4348223401286302   T   T   T
  0.5000000000000003  0.7558438776798309  0.4383514981569920   T   T   T
 -0.0000000000000000  0.0089505288021849  0.3734316086696135   T   T   T
  0.5000000000000003  0.7637882523472691  0.3121197673851060   T   T   T
  0.5000000000000003  0.2609178981121636  0.3081073653058960   T   T   T
 -0.0000000000000000  0.5108257744548970  0.2464363122460951   T   T   T
  0.5000000000000003  0.2575212527614884  0.1756508087712513   T   T   T
  0.5000000000000003  0.7657585776620079  0.1866186388167638   T   T   T
 -0.0000000000000000  0.0500020771336525  0.1090282770981530   T   T   T
  0.5000000000000003  0.7529858133101774  0.0618930703114931   T   T   T
