Sr Co O 
 1.0000000000000000
     4.1931718204074739    3.7753576498807382    0.0000000000000000
     4.1931718204074739   -3.7753576498807386    0.0000000000000000
     0.0000000000000000    0.0000000000000000  -11.2512612085029389
 Sr  Co  O  
   6   6  12
Selective dynamics
Direct
 -0.0091544697894727  0.0091544697894727 -0.0109134047113250   T   T   T
 -0.0091544697894727  0.0091544697894727  0.6775800713779914   T   T   T
 -0.0051173549824473  0.0051173549824473  0.3333333333333334   T   T   T
  0.5091544697894728  0.4908455302105274 -0.0109134047113250   T   T   T
  0.5091544697894728  0.4908455302105274  0.6775800713779914   T   T   T
  0.5051173549824475  0.4948826450175528  0.3333333333333334   T   T   T
  0.4948242245131987 -0.0051757754868012  0.8333333333333334   T   T   T
  0.5164833455936062  0.0164833455936063  0.4953791601413476   T   T   T
  0.5164833455936062  0.0164833455936063  0.1712875065253187   T   T   T
  0.0051757754868013  0.5051757754868014  0.8333333333333334   T   T   T
 -0.0164833455936063  0.4835166544063939  0.4953791601413476   T   T   T
 -0.0164833455936063  0.4835166544063939  0.1712875065253187   T   T   T
  0.2500000000000001  0.7500000000000001  0.8333333333333334   T   T   T
  0.2500000000000000  0.2500000000000000  0.8333333333333334   T   T   T
  0.2500000000000000  0.2500000000000000  0.5483511820330162   T   T   T
  0.4335275036480000 -0.0664724963519999  0.3333333333333334   T   T   T
  0.2500000000000000  0.2500000000000000  0.1183154846336505   T   T   T
  0.7500000000000001  0.2500000000000000  0.8333333333333334   T   T   T
  0.7499999999999999  0.7499999999999998  0.8333333333333334   T   T   T
  0.7500000000000001  0.2500000000000000  0.4994050454110809   T   T   T
  0.7499999999999999  0.7499999999999998  0.5483511820330162   T   T   T
  0.0664724963519996  0.5664724963519996  0.3333333333333334   T   T   T
  0.7500000000000001  0.2500000000000000  0.1672616212555854   T   T   T
  0.7499999999999999  0.7499999999999998  0.1183154846336505   T   T   T
