Sr Co O 
 1.0000000000000000
     4.2157177138567627   -0.0262279756821411    3.8842062111290985
     4.0991055823687814   -3.6710767358491458   -3.7321427134206600
     4.3009614719022391    7.8438753832589301   -4.0247884630231718
 Sr  Co  O  
   6   6  12
Selective dynamics
Direct
 -0.0352229121076344 -0.0113458058501556  0.0061868385897174   T   T   T
  0.5365254397434515  0.6287895338283049  0.8646714208764206   T   T   T
 -0.0365254397434494  0.3712104661716936  0.6353285791235832   T   T   T
  0.5352229121076351  0.0113458058501542  0.4938131614102829   T   T   T
 -0.0176017613727689  0.6689713015640453  0.3228852274356980   T   T   T
  0.5176017613727705  0.3310286984359531  0.1771147725643044   T   T   T
  0.5050932699708519  0.8069129896302053  0.1920317055054317   T   T   T
  0.0377644237735751  0.5104706458168747  0.0186806999897197   T   T   T
  0.4582488194265792  0.1775729096685238  0.8071819024904506   T   T   T
  0.0417511805734216  0.8224270903314737  0.6928180975095511   T   T   T
  0.4622355762264248  0.4895293541831227  0.4813193000102823   T   T   T
 -0.0050932699708516  0.1930870103697928  0.3079682944945699   T   T   T
  0.2634451985330631  0.7098253498892704  0.0807388045207547   T   T   T
  0.7462871165336439  0.6497855554218743  0.0917703039033606   T   T   T
  0.6406941357098349  0.2479520099968403  0.9398703156722547   T   T   T
 -0.0025467471466724  0.6034606556410286  0.8272151923255920   T   T   T
  0.2500000000000003 -0.0000000000000006  0.7500000000000001   T   T   T
  0.5025467471466718  0.3965393443589681  0.6727848076744103   T   T   T
  0.8593058642901650  0.7520479900031554  0.5601296843277478   T   T   T
  0.2365548014669367  0.2901746501107266  0.4192611954792479   T   T   T
  0.3836446586788014  0.7405279776920075  0.3767270658735722   T   T   T
  0.7537128834663575  0.3502144445781207  0.4082296960966428   T   T   T
  0.7500000000000000 -0.0000000000000023  0.2500000000000007   T   T   T
  0.1163553413211977  0.2594720223079895  0.1232729341264295   T   T   T
