Sr Co O 
 1.0000000000000000
     4.0650016924730599   -0.0418894841989560    4.1108392293025888
     3.8980476360620946   -3.8765954986019433   -3.9005460489520836
     3.8138537945507021    7.7117640874341609   -3.9433934276740663
 Sr  Co  O  
   6   6  12
Selective dynamics
Direct
  0.0119349100767147  0.0077783179630735 -0.0002952101184201   T   T   T
  0.4873547640183600  0.6987713717324832  0.8259617355313346   T   T   T
  0.0190867168038688  0.3391788984727304  0.6523553716079585   T   T   T
  0.5281933834106713  0.0008786129434926  0.4976146449537197   T   T   T
 -0.0050050869810900  0.6276505324912681  0.3415688102103894   T   T   T
  0.4754226383035868  0.3260684886835740  0.1903452651702067   T   T   T
  0.5461361758183914  0.8302188937080601  0.1685914616888906   T   T   T
 -0.0614215799575762  0.5151554780854839  0.0062866929121370   T   T   T
  0.4914034197696178  0.1576596196309196  0.8191065950367808   T   T   T
 -0.0158860567558228  0.8418356035974336  0.6943054786611099   T   T   T
  0.5153993186252733  0.4956398319028571  0.5026797543376829   T   T   T
 -0.0096713130190197  0.1731191570541965  0.3176816931706613   T   T   T
  0.4460917495990807  0.0331722796391305  0.0186761933287900   T   T   T
  0.6353026945867806  0.5949270298362237  0.0565942867666604   T   T   T
  0.0551058808807170  0.6551812431325242  0.8590626017977209   T   T   T
  0.2800082877281743 -0.0222666818262576  0.7023872873791684   T   T   T
  0.4460773889998894  0.3956413199542858  0.7005118777456815   T   T   T
  0.8022431692101761  0.0678001287400226  0.7713993236293059   T   T   T
  0.7938505190025928  0.6901340459332438  0.5691368546022770   T   T   T
  0.2475939437127931  0.2849005900735759  0.4210091361419250   T   T   T
  0.4134638411051690  0.7045884523237292  0.3420976579045047   T   T   T
  0.7457064706080608  0.3093049074429874  0.4188437252913418   T   T   T
  0.8509739705205372 -0.0609448136874223  0.2386644786027823   T   T   T
  0.0506346941081303  0.3336066201406085  0.1354143420053410   T   T   T
