Sr Co O 
 1.0000000000000000
     3.9522642282314968    0.0000000000000000    3.9522642282314999
    -0.0000000000000000   -7.8712008985852480   -0.0000000000000000
     3.9125741377359469   -0.0000000000000000   -7.8648383659674490
 Sr  Co  O  
   6   6  13
Selective dynamics
Direct
  0.0064882739136672  0.0000000000000000  0.0129765478273345   T   T   T
  0.3268450594196662  0.0000000000000000  0.6536901188393307   T   T   T
  0.6666666666666669 -0.0000000000000000  0.3333333333333326   T   T   T
  0.0081485516576204  0.4999999999999997  0.0162971033152407   T   T   T
  0.3251847816757135  0.4999999999999997  0.6503695633514250   T   T   T
  0.6666666666666669  0.4999999999999997  0.3333333333333326   T   T   T
  0.5396427751557695  0.7356144437651900  0.0078512013681380   T   T   T
  0.7936905581775643  0.7356144437651900  0.6588154652985272   T   T   T
  0.1666666666666668  0.7451103385859086  0.3333333333333325   T   T   T
  0.4682084262123692  0.2643855562348096  0.0078512013681385   T   T   T
  0.8651249071209650  0.2643855562348096  0.6588154652985271   T   T   T
  0.1666666666666668  0.2548896614140912  0.3333333333333325   T   T   T
  0.3077570096299310  0.7691043573958318  0.1231917488795799   T   T   T
  0.6666666666666687  0.8166132806927627  0.8333333333333331   T   T   T
  0.4922847138658213  0.7898928426617040  0.4800364104911512   T   T   T
  0.0255763237034022  0.7691043573958318  0.5434749177870859   T   T   T
  0.8410486194675139  0.7898928426617039  0.1866302561755147   T   T   T
  0.3455816367080014  0.2101071573382959  0.1866302561755142   T   T   T
  0.1666666666666677  0.1833867193072369  0.8333333333333326   T   T   T
  0.4757463331329933  0.4999999999999997 -0.0485073337340135   T   T   T
  0.5178985940836849  0.2308956426041679  0.5434749177870857   T   T   T
  0.8575870002003413  0.4999999999999997  0.7151740004006796   T   T   T
 -0.0122483033746685  0.2101071573382958  0.4800364104911509   T   T   T
  0.8154347392496499  0.2308956426041678  0.1231917488795801   T   T   T
  0.1666666666666668  0.4999999999999997  0.3333333333333325   T   T   T
