Sr Co O 
 1.0000000000000000
    -3.9112377720109013    3.9563520581993119    3.8834966170065064
    -3.8884033746326052   -3.9411445193183980    3.8912620571437846
     3.8927925861441208   -0.0191585016909727    7.7676770560604504
 Sr  Co  O  
   6   6  14
Selective dynamics
Direct
  0.0076081763734068 -0.0125793290560021 -0.0172924089743028   T   T   T
  0.1843456469153038  0.1896902233374318  0.3432477321700820   T   T   T
  0.2974825815263543  0.3181036102417962  0.6962466103060955   T   T   T
  0.4892147984332808  0.5111495689261176 -0.0174132215346937   T   T   T
  0.6703522998081207  0.6650915102193974  0.3446572258302635   T   T   T
  0.8271031751680268  0.8185617781216283  0.6807479835120126   T   T   T
  0.1836527433364294  0.6430881631123025  0.3389309353480765   T   T   T
  0.3286469733302003  0.8265255455596143  0.6565026799494693   T   T   T
  0.4992849450989427 -0.0058160586436465  0.0169248797380337   T   T   T
  0.6383881765449856  0.1776233294314698  0.3420886880966633   T   T   T
  0.8367252495169423  0.3343485072182502  0.6551515908818882   T   T   T
 -0.0024216212056929  0.5050291158458505 -0.0002394220764033   T   T   T
  0.0710104010728815  0.6237671286163859  0.1733215573694692   T   T   T
  0.2559032569536380  0.8062544011161340  0.4366294168024278   T   T   T
  0.5201465316812450 -0.0117057918111345  0.5153388453275015   T   T   T
  0.0513771748571557  0.0858837579343605  0.6750513590282338   T   T   T
  0.4118324616418264  0.9246056703697202  0.8575348787204636   T   T   T
  0.2518510088705416  0.2216221756305043  0.0375456921301179   T   T   T
  0.6265595943184934  0.0747439624154521  0.1619510025878244   T   T   T
  0.4533937440028245  0.4525097177470858  0.2866028968497108   T   T   T
  0.8039189781814809  0.2472495181395558  0.4449704023253220   T   T   T
  0.0006091662877840  0.5309522136713481  0.5143420795566384   T   T   T
  0.5731699679615673  0.5249136580767088  0.6669419348794414   T   T   T
  0.8821625914064429  0.3844931451939892  0.8628774586704168   T   T   T
  0.1629969682922993  0.6614726801450532  0.8148761894459339   T   T   T
  0.7246849683571107  0.7524218383278334  0.0124630210265380   T   T   T
