Sr Co O 
 1.0000000000000000
     4.1316263047525261   -0.0259189330643273    3.6307378601718039
     0.0055599860509737   -7.7489624739979019    0.0442924781075451
     4.1216598138833005    0.0449511062170679   -7.2448737064288675
 Sr  Co  O  
   6   6  12
Selective dynamics
Direct
 -0.0028029713769358  0.0031055611015012  0.0117446912118908   T   T   T
  0.3408567070289770  0.0004817163116062  0.6712656970737655   T   T   T
  0.6489446224095567 -0.0019435095610632  0.3259345470087403   T   T   T
  0.0011116616205764  0.4890707376580246 -0.0026971106914585   T   T   T
  0.3590068561230965  0.4927002420036977  0.6635801767284669   T   T   T
  0.6615810499869530  0.4942219389922746  0.3139018582564170   T   T   T
  0.4949956089861535  0.7434620982694302 -0.0081221658717995   T   T   T
  0.8560022316307646  0.7665350757777432  0.6738939693775184   T   T   T
  0.1403053282867651  0.7457533915177613  0.3153321683958377   T   T   T
  0.4931510027507776  0.2439089182649590 -0.0059212025439706   T   T   T
  0.8509621131573423  0.2281534352900828  0.6552265502994552   T   T   T
  0.1501466332778767  0.2584350132778547  0.3550478638643626   T   T   T
  0.1591298597777326  0.7252001220346186  0.8167541300189308   T   T   T
  0.4566057744185928 -0.0093699182457002  0.0142136412257475   T   T   T
  0.5754005890643877  0.7225512161433623  0.5217103631033305   T   T   T
  0.7968905392273231  0.0032597983581405  0.7222206189720787   T   T   T
  0.8122282990934894  0.7516522176208358  0.1551905040424179   T   T   T
  0.1567427593132674 -0.0148517394937609  0.3583175234931121   T   T   T
  0.1682336321918670  0.2500215376939355  0.8402365611203901   T   T   T
  0.5324135516086149  0.4950062192857136 -0.0307838919226942   T   T   T
  0.5138989225560656  0.2428284124285899  0.5096384561605742   T   T   T
 -0.0161279646843280  0.3685121092690368  0.5202012127134911   T   T   T
  0.8099579155243976  0.2388394235557984  0.1532459069046385   T   T   T
  0.2070319229414463  0.5124660494783081  0.2832012075304796   T   T   T
