Sr Co O 
 1.0000000000000000
     4.4458010250236981   -0.0000000000000000    3.7176288258380268
     0.0000000000000000   -7.3768023646334449    0.0000000000000000
     4.4126712112908510    0.0000000000000000   -7.3945836077848659
 Sr  Co  O  
   6   6  12
Selective dynamics
Direct
  0.0442820565140501  0.0058032483317847  0.0111613063135757   T   T   T
  0.2789074973393599  0.0150923083659421  0.6431344747885764   T   T   T
  0.6919879973330032  0.0204389036821232  0.3276154735680282   T   T   T
  0.0442820565140501  0.4941967516682151  0.0111613063135757   T   T   T
  0.2789074973393599  0.4849076916340583  0.6431344747885764   T   T   T
  0.6919879973330032  0.4795610963178763  0.3276154735680282   T   T   T
  0.5286068865397063  0.7500000000000000 -0.0344042768052646   T   T   T
  0.7449790064886285  0.7500000000000000  0.6890226659797666   T   T   T
  0.2356716288375050  0.7500000000000000  0.3486076805111188   T   T   T
  0.5188017594902788  0.2500000000000001 -0.0073479525762087   T   T   T
  0.7779595785788375  0.2500000000000001  0.6634152785557424   T   T   T
  0.1862761598665370  0.2500000000000001  0.3392485614884358   T   T   T
  0.2473384273989090  0.7500000000000000  0.8473046850628199   T   T   T
  0.5443517099484695  0.7500000000000000  0.4785541635129755   T   T   T
  0.7811067211119902 -0.0049136257842171  0.7447221575533018   T   T   T
  0.7798147388404845  0.7500000000000000  0.1104393317682824   T   T   T
  0.1359479244907316 -0.0201148756367844  0.3256001397761601   T   T   T
  0.3743605129052238  0.2500000000000001  0.1741268212132897   T   T   T
  0.2542737917765594  0.2500000000000001  0.8434623844613248   T   T   T
  0.4865157515427976  0.2500000000000001  0.5088686064368514   T   T   T
  0.7811067211119902  0.5049136257842169  0.7447221575533018   T   T   T
 -0.0268552676685901  0.2500000000000001  0.4970774719644268   T   T   T
  0.8167740524575366  0.2500000000000001  0.1038240102563463   T   T   T
  0.1359479244907316  0.5201148756367847  0.3256001397761601   T   T   T
