Sr Co O 
 1.0000000000000000
    -3.8828647871460911    4.2057893875192534   -0.0469947962638562
    -0.0053737357700567    4.1003049859049376    7.8064759227129690
     3.9935056634879271    8.5228849057630480   -0.1557237472617888
 Sr  Co  O  
   6   6  12
Selective dynamics
Direct
  0.1096482537860108 -0.0631271548425522  0.0160286964336858   T   T   T
  0.7527441430118484  0.5699415752458153  0.7908963212291807   T   T   T
  0.6314957853240463  0.0116157062919305  0.6261214134271144   T   T   T
  0.4595204673181056  0.5239560315254540  0.5164864098863429   T   T   T
  0.3693434896830399 -0.0391859164919203  0.3213460328647245   T   T   T
  0.1534675732638228  0.4766778751847436  0.2437668410042225   T   T   T
  0.7644000536127231  0.2567490502576570  0.2639450444017232   T   T   T
  0.6409933945909393  0.7031763683391394  0.1002885171082106   T   T   T
  0.1676267762192390  0.3542755400500042  0.9754297671420105   T   T   T
  0.2129835109579392  0.7867343215393697  0.7073284230385282   T   T   T
  0.0755751519673680  0.2284331032215781  0.5687786878805496   T   T   T
  0.9312759673867071  0.7308263792278745  0.4169483325719343   T   T   T
  0.1026368455730850  0.1471490855440581  0.1251279616875356   T   T   T
  0.8185457476897043  0.4710824864221233  0.0819933122162438   T   T   T
  0.5554816082441005  0.8130510937010653  0.9000818645018923   T   T   T
  0.3175373506641688  0.5235260663932074  0.8138722499996016   T   T   T
  0.5697043389443773  0.7763465189788545  0.5515149698976608   T   T   T
  0.0370473768083560  0.8064673529544713  0.5557482038427375   T   T   T
  0.1215919163273890  0.0115632519399260  0.7327277579630950   T   T   T
  0.4261476682189181  0.2016197201998410  0.3706669660696636   T   T   T
  0.8183659862155238  0.2796088321252415  0.4502329456673137   T   T   T
  0.0336095965360236  0.4627238948280651  0.5517019321254631   T   T   T
  0.2931943248716838  0.7108291422417305  0.2633365224243901   T   T   T
  0.8037294658310581  0.7559597052811751  0.2222974864308910   T   T   T
