Sr Co O 
 1.0000000000000000
    -3.5312684337612947    0.0000000000000000    0.0000000000000000
     0.0000000000000000    4.3559778563876668    3.8081382509216040
     0.0000000000000000    8.9538667801641250  -11.6703526956193251
 Sr  Co  O  
   5   5  10
Selective dynamics
Direct
 -0.0000000000000000 -0.0509215545151958 -0.0028383686436447   T   T   T
 -0.0000000000000000  0.2996881686811108  0.7956495411370524   T   T   T
 -0.0000000000000000  0.8704005332435996  0.5872358083172251   T   T   T
 -0.0000000000000000  0.2041141211862030  0.3874460250188480   T   T   T
 -0.0000000000000000  0.6462277784963271  0.2050182459121300   T   T   T
  0.5000000000000006  0.4430540263766924  0.0032285933020251   T   T   T
  0.5000000000000006  0.8190111578931032  0.7970613708588252   T   T   T
  0.5000000000000006  0.3404000870062081  0.6045071173680967   T   T   T
  0.5000000000000006  0.6987441704841303  0.3864486169587657   T   T   T
  0.5000000000000006  0.1611583622024292  0.1973389502885312   T   T   T
  0.5000000000000006  0.2018861882258108  0.9193294836659703   T   T   T
 -0.0000000000000000  0.7365090033911804  0.8388880889413551   T   T   T
  0.5000000000000006  0.0455107818524890  0.7079388756402024   T   T   T
 -0.0000000000000000  0.4639579769134796  0.6418565289075775   T   T   T
  0.5000000000000006  0.1065011639320459  0.5061951587298503   T   T   T
 -0.0000000000000000  0.6573013083519466  0.4365467819345850   T   T   T
  0.5000000000000006  0.4245222211122331  0.2916742279657861   T   T   T
  0.5000000000000006  0.9235134214032171  0.2878058055281260   T   T   T
 -0.0000000000000000  0.1984927096955264  0.1376021669474462   T   T   T
  0.5000000000000006  0.7099282930244634  0.0710670225140318   T   T   T
