Sr Co O 
 1.0000000000000000
    -4.0050299403329657    3.9322215626536243    0.0080820174256507
    -0.0141616061481952    3.9362319696076931    8.0351817925906008
     4.0825954693603581    7.9429159987571447   -0.0412202625030799
 Sr  Co  O  
   6   6  12
Selective dynamics
Direct
  0.0398834292958768 -0.0521880762466044  0.0255881939725810   T   T   T
  0.8191100499005660  0.5603124685852616  0.7938688451806467   T   T   T
  0.6709992756539972 -0.0284460175585052  0.6906574099162318   T   T   T
  0.5095414284059886  0.5459366999729873  0.4902183156573460   T   T   T
  0.3503311361992040 -0.0319876300362451  0.3431434923499768   T   T   T
  0.1841299660742045  0.5301033027128581  0.1555082619119669   T   T   T
  0.7087956256126821  0.2050767182434325  0.3408460018218250   T   T   T
  0.6091107738195103  0.7432359672020115  0.0840308292355606   T   T   T
  0.3205974233294780  0.2886892742232439  0.8357179748200754   T   T   T
  0.2591383880392814  0.7397367607666332  0.7579820299910223   T   T   T
  0.0959619897689478  0.2783559859662215  0.5473815560713959   T   T   T
  0.9355609526145366  0.7604994473592143  0.4128274922590035   T   T   T
  0.9089872999518286  0.0287731086451836  0.2721912303553105   T   T   T
  0.9138040080959984  0.7651087141426903  0.9179807137904629   T   T   T
  0.4373515973773989  0.7457577176420739  0.9270991249932297   T   T   T
  0.2245372308152184  0.1553357138090874  0.7688329967239680   T   T   T
  0.3795232149303306  0.4631876765833992  0.8537814882190391   T   T   T
  0.5699863719485395  0.7848434680327452  0.5809189370465279   T   T   T
  0.0813102955879361  0.7906182639231975  0.5819595508650242   T   T   T
  0.3548283689597743  0.2500722236330841  0.3443166586933132   T   T   T
  0.7819844495863778  0.2540743780245733  0.5078838477070725   T   T   T
  0.0173570720571762  0.5075859979420568  0.5311951778211466   T   T   T
  0.3052868928785022  0.7293627123043345  0.2427858742533949   T   T   T
  0.7718827488179690  0.7359550289973439  0.2432841482102804   T   T   T
