Sr Co O 
 1.0000000000000000
     3.6831951932817897    0.0000000000000000    0.0000000000000000
     0.0000000000000000    8.2049812951081513   -0.0259718330023483
     0.0000000000000000   -0.0389875481792284   12.1790909731925385
 Sr  Co  O  
   6   6  13
Selective dynamics
Direct
  0.0000000000000000  0.0026616247792559 -0.0019606508018163   T   T   T
  0.0000000000000000  0.0186567827503328  0.3536029751594285   T   T   T
  0.0000000000000000  0.0072338829322143  0.6522133590952881   T   T   T
  0.0000000000000000  0.5040885797743857  0.0083677238264965   T   T   T
  0.0000000000000000  0.4786713550019904  0.3450812522437854   T   T   T
  0.0000000000000000  0.4959188310012860  0.6378524507173480   T   T   T
  0.4999999999999994  0.2763584450607541  0.1728856182480928   T   T   T
  0.4999999999999994  0.2474466515949769  0.4980372058807651   T   T   T
  0.4999999999999994  0.2603757643188217  0.8181888444325517   T   T   T
  0.4999999999999994  0.7557009141905360  0.1779790697817321   T   T   T
  0.4999999999999994  0.7498368973466853  0.5017549231046738   T   T   T
  0.4999999999999994  0.7059918177311950  0.8283566330540620   T   T   T
  0.0000000000000000  0.2389403818415294  0.1188593803506852   T   T   T
  0.4999999999999994  0.2295291911040102  0.3275729725619924   T   T   T
  0.0000000000000000  0.2537028781898820  0.4950787853150247   T   T   T
  0.4999999999999994 -0.0169810574010955  0.4995273567332745   T   T   T
  0.4999999999999994  0.2569247711316561  0.6594069313261592   T   T   T
  0.0000000000000000  0.1696734720928350  0.8417421639215793   T   T   T
  0.0000000000000000  0.8335904409471349  0.1750587510535502   T   T   T
  0.4999999999999994  0.5293418558244144  0.1725007432085864   T   T   T
  0.0000000000000000  0.7472366203746901  0.4542646127963276   T   T   T
  0.4999999999999994  0.5163698609770376  0.4887479358660626   T   T   T
  0.4999999999999994  0.7503181410610046  0.6724401195129294   T   T   T
  0.0000000000000000  0.7618731529398902  0.8886969180605593   T   T   T
  0.4999999999999994  0.4765387462957866  0.8804105828036924   T   T   T
