Sr Co O 
 1.0000000000000000
     3.7360654686588148    0.0000000000000000   -0.0000000000000000
    -0.0000000000000000    3.7360654686588148   -0.0000000000000000
     0.0000000000000000   -0.0000000000000002   15.8909568438466060
 Sr  Co  O  
   4   4   8
Selective dynamics
Direct
  0.0000000000000000  0.0000000000000000  0.0000000000000000   T   T   T
 -0.0000000000000000 -0.0000000000000000  0.2499999999999998   T   T   T
 -0.0000000000000000 -0.0000000000000000  0.4999999999999996   T   T   T
  0.0000000000000000  0.0000000000000000  0.7499999999999999   T   T   T
  0.5000000000000003  0.5000000000000003  0.1248174752499255   T   T   T
  0.5000000000000003  0.5000000000000003  0.3751825247500738   T   T   T
  0.5000000000000003  0.5000000000000003  0.6248174752499251   T   T   T
  0.5000000000000003  0.5000000000000003  0.8751825247500740   T   T   T
  0.5000000000000003  0.5000000000000003 -0.0000000000000000   T   T   T
  0.0000000000000000  0.5000000000000003  0.1243699228237212   T   T   T
  0.5000000000000003  0.5000000000000003  0.2499999999999998   T   T   T
 -0.0000000000000000  0.5000000000000003  0.3756300771762786   T   T   T
  0.5000000000000003  0.5000000000000003  0.4999999999999996   T   T   T
  0.5000000000000003 -0.0000000000000000  0.6243699228237214   T   T   T
  0.5000000000000003  0.5000000000000003  0.7499999999999999   T   T   T
  0.5000000000000003 -0.0000000000000000  0.8756300771762776   T   T   T
