Sr Co O 
 1.0000000000000000
    -3.8575376261922396    3.8372854871069935    4.0583966737512327
    -4.0602355823374188   -3.9879578686597483    4.0100503315575802
     3.9534590566355905    0.1472194783340213    8.0633582448112637
 Sr  Co  O  
   6   6  12
Selective dynamics
Direct
 -0.0160498498429421 -0.0394992836959960 -0.0220279738382056   T   T   T
  0.1784616593968765  0.1940968959504826  0.3093348234956308   T   T   T
  0.3370445140312723  0.3320007768571498  0.6889565224438639   T   T   T
  0.5128140145957071  0.4653951946712238  0.0336776344192193   T   T   T
  0.6779643841415752  0.7123137909917252  0.3061966056457271   T   T   T
  0.8002901118168658  0.7978509562228402  0.6898410078007747   T   T   T
  0.1681828148550522  0.6635272098955669  0.3682258114705423   T   T   T
  0.3285115086879699  0.7923372470969530  0.6601987070279070   T   T   T
  0.4537503661944692 -0.0089251208217065 -0.0259406548278409   T   T   T
  0.7020799816543022  0.1872079720748934  0.3534961411566852   T   T   T
  0.8416621993294281  0.3506108120043789  0.6413081000637062   T   T   T
 -0.0104700627427204  0.4689707075023487 -0.0144102517840770   T   T   T
  0.1226407305534598  0.6699434308735535  0.1764606233411569   T   T   T
  0.2587669388344698  0.8298363493003329  0.4490262746631380   T   T   T
  0.3650700947316153  0.9563019067582890  0.7959439605561190   T   T   T
  0.2896964741720350  0.2594586562906827 -0.0002539861024757   T   T   T
  0.5904170209874763  0.1022017737082736  0.2283439959020611   T   T   T
  0.8330160893093478  0.3793814672019035  0.2055911667440262   T   T   T
  0.7438919461476994  0.1653752612466871  0.5551787162505831   T   T   T
  0.1116206863426592  0.4145836207138798  0.5030621334328540   T   T   T
  0.6206996381180823  0.6139663052576564  0.5972410623143009   T   T   T
  0.8725729743361916  0.3387062076862798  0.8540396004393914   T   T   T
  0.1137751789537032  0.6701626338109176  0.8092107821637342   T   T   T
  0.6869240001784723  0.7675285250522541  0.0039658365307750   T   T   T
