Sr Co O 
 1.0000000000000000
    -3.9176557218939236    3.9408063347390172   -0.0612863721819947
     0.0135818345691820    3.8290332749624612    8.0367653276611293
     3.8274026514024793    7.7917680049588398   -0.0606125633057183
 Sr  Co  O  
   6   6  13
Selective dynamics
Direct
  0.0234327799408931 -0.0302512033541956  0.0174094632662372   T   T   T
  0.8654388540428231  0.5103267794329261  0.8215581077724994   T   T   T
  0.7132673238435778 -0.0222672054694168  0.6772849464683948   T   T   T
  0.5031032492276916  0.5034186373652717  0.5066311414524134   T   T   T
  0.3718025970935538 -0.0368806057663368  0.3291480317417780   T   T   T
  0.1804538226380459  0.5218365878565610  0.1426198520474148   T   T   T
  0.7644934874231897  0.2051570660702140  0.2767969430662502   T   T   T
  0.6073080836915817  0.7525529010472546  0.0745026139376967   T   T   T
  0.3777120470219857  0.2404923827311947  0.9451160336251095   T   T   T
  0.2560359274326654  0.7766503506403474  0.7507150214791417   T   T   T
  0.1206197434468441  0.2489438765752083  0.5206699403304582   T   T   T
  0.9638996138845926  0.7256752552908534  0.4141826518867560   T   T   T
  0.8151308568833751 -0.0392660271411721  0.3584876195447371   T   T   T
  0.0047113172235261  0.2540091697189903  0.0484040295875465   T   T   T
  0.9397405207515412  0.7278258295092144  0.9336202381887947   T   T   T
  0.4887647836505900  0.7328889555492861  0.8936525645134050   T   T   T
  0.5496987427099584  0.0237180532948152 -0.0085387684918522   T   T   T
  0.4282828922960987  0.4500842410354570  0.8274840646750192   T   T   T
  0.1381224289122954  0.7506820296167452  0.5795231717337113   T   T   T
  0.2068151181849162  0.0277933878784624  0.6822656259745764   T   T   T
  0.3938411371592507  0.2552602674478898  0.3030937188276956   T   T   T
  0.8033299313398458  0.2502809823994552  0.4666642764796753   T   T   T
  0.0346154236572496  0.4774960402948613  0.5320195786112220   T   T   T
  0.2840408769123580  0.7351337246505172  0.2209794741757176   T   T   T
  0.7486718319916172  0.7084386041206336  0.2690429215756880   T   T   T
