Sr Co O 
 1.0000000000000000
    -4.0174385304859497    4.0093028364576391    0.0628664585550963
    -0.0719671854937921    4.0812799217661366    7.9154681600816330
     3.8747433539385616    7.8785385779780626    0.1086540808359846
 Sr  Co  O  
   6   6  13
Selective dynamics
Direct
  0.0042653886172576 -0.0123871630217592 -0.0152540503415713   T   T   T
  0.8225502084719628  0.5253850719622580  0.8421811615619222   T   T   T
  0.6698491155316649 -0.0326731565274380  0.6848733673170194   T   T   T
  0.4861832904404603  0.4944742891044718  0.5545328244984055   T   T   T
  0.3393416650764351 -0.0385318832433108  0.3727982207754648   T   T   T
  0.2150815689486012  0.5004881561046185  0.1790399061271012   T   T   T
  0.7870800340181922  0.1910627331840877  0.2916729968843391   T   T   T
  0.5704504854813771  0.7735956417364636  0.0853548599684563   T   T   T
  0.3319684785859933  0.2422565972485732  0.9640663195451767   T   T   T
  0.2518614378805394  0.7341553225220101  0.7755141032756648   T   T   T
  0.1297831634196371  0.2565998800598124  0.5861761389180020   T   T   T
  0.9371488047700790  0.7280866326020713  0.4387794668616599   T   T   T
  0.8245915717637750 -0.0289491216600119  0.2941241551019906   T   T   T
  0.4103863408609141  0.7566196047848261  0.9299264401650417   T   T   T
  0.5400267585778868  0.0174487879052800  0.0056026191544520   T   T   T
  0.4168038213249083  0.4538136239712391  0.8789101768579781   T   T   T
  0.1401058030517134  0.2638836352368943  0.8050716910600744   T   T   T
  0.5788636744794501  0.7478733918650605  0.5979417437897393   T   T   T
  0.0784886602814010  0.7263225976157397  0.6233147408735945   T   T   T
  0.0872067096638442  0.0331441906055529  0.6544572683457369   T   T   T
  0.4933810330164340  0.2603524201089947  0.4384390648156213   T   T   T
  1.0951788726359049  0.2529496228513445  0.1850355543873815   T   T   T
 -0.0496432941625410  0.4880869270282604  0.4713092015429129   T   T   T
  0.3396822799231151  0.7073031478619569  0.2873968341500692   T   T   T
  0.9160308820713660  0.7086390477908285 -0.0145981422579742   T   T   T
