Sr Co O 
 1.0000000000000000
    -3.7082519383624155    4.3425570454544360    3.6667121182065956
    -3.6982589623663209   -4.3344220582417847    3.6512964391488518
     3.8663482730432990    0.0215213098131686    7.4738227877836128
 Sr  Co  O  
   6   6  12
Selective dynamics
Direct
 -0.0216017106644542  0.0009312636202849  0.0139090155134778   T   T   T
  0.1466482655893291  0.1460246052803993  0.3230186463338140   T   T   T
  0.3712411550319794  0.3042717292256923  0.6856133825507105   T   T   T
  0.5094752384270286  0.4650906882486165 -0.0000186401159348   T   T   T
  0.6779657019094396  0.6276313074407420  0.3374305515740092   T   T   T
  0.8135485020791186  0.8364674279696738  0.6663685147549323   T   T   T
  0.1757851531829945  0.6284013529181721  0.3445846371312128   T   T   T
  0.2975724373990365  0.8053160267946464  0.7107234887907318   T   T   T
  0.5183325017672411 -0.0157359168040387  0.0260060884715699   T   T   T
  0.6450487690442461  0.1738908290543447  0.3263689213360519   T   T   T
  0.8814777667940138  0.2901797784401092  0.6700827519865952   T   T   T
 -0.0213527335205673  0.5144842787316873 -0.0307313010291737   T   T   T
  0.1307248945351105  0.0482374278847078  0.6458865003081371   T   T   T
  0.6882180381709119  0.1732279620930429  0.8594979855693610   T   T   T
  0.2743624249492584  0.1719993257059999  0.0019184741112102   T   T   T
  0.5160976969065871 -0.0158790018127106  0.2647537144009714   T   T   T
  0.8488087305228206  0.3219644463617281  0.1565087433110192   T   T   T
  0.3818283288797028  0.4240935991839856  0.3325568712829231   T   T   T
  0.7434355261013498  0.2228335461461752  0.5100546048751616   T   T   T
 -0.0301011995500745  0.8295608701024133  0.3412495555997055   T   T   T
  0.5350436226738773  0.6383010052682104  0.6468542774782560   T   T   T
  1.0078906652461472  0.4862004889758996  0.7308341501342127   T   T   T
  0.1940160216752491  0.6846746195634391  0.9414490989992044   T   T   T
  0.7155342628098701  0.7378321973645586 -0.0049200633113232   T   T   T
