Sr Co O 
 1.0000000000000000
    -3.9954046163348100    0.0023176869849374   -3.8772387931872121
     0.0457272041197252   -8.4394241899831428   -0.0353955901404594
    -3.7534416895084304    4.2671352608056416    7.5125595829331946
 Sr  Co  O  
   6   6  12
Selective dynamics
Direct
 -0.0237939193341172  0.0070237998789024 -0.0176048437665314   T   T   T
  0.6484370316471830  0.1666189319480905  0.2989901184304766   T   T   T
  0.3333333333333321  0.3333333333333330  0.6666666666666661   T   T   T
  0.0182296350194837  0.5000477347185759  0.0343432149028568   T   T   T
  0.6904605860007843  0.6596428667877645  0.3509381770998647   T   T   T
  0.3333333333333338  0.8333333333333337  0.6666666666666670   T   T   T
  0.4116748478169369  0.7349044600862499 -0.0123734752284925   T   T   T
  0.2549918188497303  0.9317622065804156  0.3457068085618260   T   T   T
  0.8454447914104092  0.0695143676375289  0.6627179300485585   T   T   T
  0.5269139626358225  0.2776448415873023 -0.0258273289957105   T   T   T
  0.1397527040308446  0.3890218250793644  0.3591606623290438   T   T   T
  0.8212218752562578  0.5971522990291379  0.6706154032847742   T   T   T
  0.5310153793407746 -0.0649678543491091 -0.0169421824532968   T   T   T
  0.6234706053960399 -0.0184660783593129  0.4332819812008808   T   T   T
  0.1775227702598797  0.1166642514175193  0.2913250361280655   T   T   T
  0.2007141352232394  0.1584835589740627  0.8110796546978057   T   T   T
  0.7009522912106598  0.2523875493988877  0.8096488854473037   T   T   T
  0.8333333333333339  0.3333333333333336  0.1666666666666668   T   T   T
  0.4891438964067878  0.5500024152491469  0.0420082972052680   T   T   T
  0.4659525314434282  0.5081831076926041  0.5222536786355276   T   T   T
  0.1356512873258908  0.7316345210157765  0.3502755157866297   T   T   T
 -0.0342856245439932  0.4142791172677789  0.5236844478860292   T   T   T
  0.0431960612706254  0.6851327450259798  0.9000513521324522   T   T   T
  0.8333333333333333  0.8333333333333338  0.6666666666666664   T   T   T
