Sr Co O 
 1.0000000000000000
     3.7659346637250488    0.0000000000000000    0.0000000000000000
     0.0000000000000000    8.3280039909671224   -0.0396181822538740
     0.0000000000000000   -0.0616094442596568   11.3834506399281743
 Sr  Co  O  
   6   6  12
Selective dynamics
Direct
  0.0000000000000000 -0.0401162611620026  0.0155386913034569   T   T   T
  0.0000000000000000  0.0023740399935127  0.3376791065550336   T   T   T
  0.0000000000000000 -0.0145981104478103  0.6473220419821430   T   T   T
  0.0000000000000000  0.5316360615360506 -0.0167511541940648   T   T   T
  0.0000000000000000  0.5045097938103480  0.3443501111229677   T   T   T
  0.0000000000000000  0.5320712605486789  0.6571311227346159   T   T   T
  0.5000000000000003  0.2610710138759573  0.1612958371373051   T   T   T
  0.5000000000000003  0.2593956903958820  0.5054843264102454   T   T   T
  0.5000000000000003  0.2420650748215061  0.8410532154447027   T   T   T
  0.5000000000000003  0.7230133450946453  0.1699080905294301   T   T   T
  0.5000000000000003  0.7531262143611550  0.4957487773732819   T   T   T
  0.5000000000000003  0.7504974819732997  0.8294775471111345   T   T   T
  0.5000000000000003  0.0509053376322259  0.1664791296916417   T   T   T
  0.0000000000000000  0.2617357069894534  0.5251039759086218   T   T   T
  0.5000000000000003  0.0298555989479149  0.4850149997348226   T   T   T
  0.0000000000000000  0.1645860150454788  0.8466070800655667   T   T   T
  0.5000000000000003  0.7526364327363565  0.0000978999269959   T   T   T
  0.0000000000000000  0.7546771653406094  0.2058639126466647   T   T   T
  0.5000000000000003  0.4723253978698515  0.1685081008339516   T   T   T
  0.0000000000000000  0.7577393387398792  0.4633326556953609   T   T   T
  0.5000000000000003  0.4928111655647699  0.4921846095730008   T   T   T
  0.5000000000000003  0.7785019858115032  0.6659616152830167   T   T   T
  0.0000000000000000  0.7640246247479783  0.8335792103899874   T   T   T
  0.5000000000000003  0.4651554214434819  0.8256957794776172   T   T   T
