Sr Co O 
 1.0000000000000000
    -4.0066125955005667   -0.0051132626421455   -4.0066125955005552
    -0.0037178374741880   -7.5716821833800756   -0.0037178374741878
    -4.0347428089896331    3.7883977230111117    8.0450732419643707
 Sr  Co  O  
   6   6  12
Selective dynamics
Direct
 -0.0229495553540149 -0.0229495553540149 -0.0458991107080299   T   T   T
  0.6680057969641988  0.1680057969641981  0.3360115939283964   T   T   T
  0.3337283628810151  0.3337283628810145  0.6674567257620297   T   T   T
  0.0065040825093205  0.5065040825093203  0.0130081650186407   T   T   T
  0.6894206894495931  0.6894206894495928  0.3788413788991862   T   T   T
  0.3305665388450738  0.8305665388450744  0.6611330776901503   T   T   T
  0.5427780927299221  0.7167456245253425 -0.0101000068639970   T   T   T
  0.1360720257848264  0.9504060625794492  0.3360129792010556   T   T   T
  0.8174614527406424  0.0888494609139446  0.6692124031185905   T   T   T
  0.4471219004060813  0.2731543686106613 -0.0101000068639972   T   T   T
  0.1999409534162295  0.3856069166216061  0.3360129792010555   T   T   T
  0.8517509503779486  0.5803629422046450  0.6692124031185906   T   T   T
  0.7062452614358833  0.5908913799857796  0.8283394621366839   T   T   T
  0.8667129494207604  0.8996889528736244  0.1561136982992958   T   T   T
  0.4658504305928442 -0.0013601675546465  0.4581826489621233   T   T   T
 -0.0127733651731716  0.0175926776847853  0.4966663294749286   T   T   T
  0.1220942007008017  0.2374480821509024  0.8283394621366822   T   T   T
  0.6263706538388752  0.1451681955704881  0.8457820678316763   T   T   T
  0.5487898878555774  0.5487898878555773  0.0975797757111547   T   T   T
  0.2894007488785354  0.2564247454256702  0.1561136982992958   T   T   T
  0.5094396946480989  0.4790736517901423  0.4966663294749276   T   T   T
 -0.0076677816307204  0.4595428165167689  0.4581826489621227   T   T   T
  0.2194114139928005  0.7006138722611874  0.8457820678316764   T   T   T
  0.8323912655722812  0.8323912655722802  0.6647825311445615   T   T   T
