Sr Co O 
 1.0000000000000000
     3.9810139771336974    0.0132376042174945    3.7534344478452142
     3.8987535390132231   -3.9285461924834415   -3.6833100925700126
     3.9613722098534918    7.9437151426052939   -3.7056612237147224
 Sr  Co  O  
   6   6  13
Selective dynamics
Direct
  0.0000000000000000 -0.0000000000000000  0.0000000000000000   T   T   T
  0.5003718830306796  0.6741091335709265  0.8327989030882600   T   T   T
 -0.0042484002498787  0.3608377088872157  0.6676085619789685   T   T   T
  0.4999999999999994  0.0000000000000001  0.5000000000000002   T   T   T
  0.0042484002498771  0.6391622911127843  0.3323914380210323   T   T   T
  0.4996281169693180  0.3258908664290727  0.1672010969117408   T   T   T
  0.5112209428743159  0.8214338700153231  0.1608814164652317   T   T   T
 -0.0000000000000002  0.5000000000000001  0.0000000000000004   T   T   T
  0.4887790571256829  0.1785661299846769  0.8391185835347698   T   T   T
  0.0232695433979014  0.8206064055542122  0.6810484860564922   T   T   T
  0.4999999999999994  0.5000000000000006  0.5000000000000004   T   T   T
 -0.0232695433979031  0.1793935944457880  0.3189515139435086   T   T   T
  0.2537222997354057  0.6636254256085686  0.0805400606273576   T   T   T
  0.4999999999999998 -0.0000000000000000 -0.0000000000000001   T   T   T
  0.7462777002645927  0.3363745743914321  0.9194599393726427   T   T   T
 -0.0268050724130264  0.6760329666290170  0.8532701851012763   T   T   T
  0.2169976256945046  0.0307684172584896  0.7535182628298275   T   T   T
  0.4660976159846549  0.3539738182101305  0.6906155019626460   T   T   T
  0.7432896924468473  0.7275647847717491  0.5996049175498781   T   T   T
  0.2375866807538456  0.6897083026725135  0.5455434212194079   T   T   T
  0.2567103075531513  0.2724352152282504  0.4003950824501226   T   T   T
  0.5339023840153425  0.6460261817898689  0.3093844980373548   T   T   T
  0.7624133192461515  0.3102916973274858  0.4544565787805925   T   T   T
  0.7830023743054940 -0.0307684172584890  0.2464817371701723   T   T   T
  0.0268050724130245  0.3239670333709836  0.1467298148987243   T   T   T
