Sr Co O 
 1.0000000000000000
    -4.0176041243894023    4.0032580116635588    0.0378062560611435
    -0.0748567436165351    4.0050983523824684    7.9110685662574483
     3.9380151999395165    7.9264863900340652    0.0042053095670357
 Sr  Co  O  
   6   6  12
Selective dynamics
Direct
  0.0452128854054028 -0.0379014110519951  0.0125424099961315   T   T   T
  0.8072865742011167  0.5520983300179358  0.7971459774660435   T   T   T
  0.6723986837587892 -0.0240059943569417  0.6824973113147714   T   T   T
  0.4935994016319069  0.5498650382912821  0.4963181976918958   T   T   T
  0.3240258764532526 -0.0104447112987382  0.3463819702459293   T   T   T
  0.1844197616963260  0.5328975401628052  0.1557976510328811   T   T   T
  0.7800298979230177  0.2371908666942312  0.2851244745783312   T   T   T
  0.5981892042699040  0.7590319069585710  0.0854042992406860   T   T   T
  0.2817063898019882  0.2810911020918940  0.8971605843035685   T   T   T
  0.2503557933451163  0.7372087961163334  0.7579534731899933   T   T   T
  0.1329346499268288  0.2692844039815243  0.5435676128770686   T   T   T
  0.9196093860931180  0.7461896433924778  0.4169178555994542   T   T   T
  0.0601955217114777  0.1942239310571408  0.1102002280868967   T   T   T
  0.9122055633714473  0.7705946748709491  0.9192537766054321   T   T   T
  0.4399974920381674  0.7422796485944790  0.9332812746572388   T   T   T
  0.2581077672971981  0.1748901362983270  0.7568615110310073   T   T   T
  0.3942823235842610  0.4709992314394419  0.8380426967529631   T   T   T
  0.5562236949624375  0.7973651199461614  0.5777894060340516   T   T   T
  0.0762889557101677  0.7686495415568900  0.5772318626050034   T   T   T
  0.4304882971842601  0.2649996306667938  0.3368524262937232   T   T   T
  0.9177163890231029  0.1821412677867236  0.4763550245752396   T   T   T
 -0.0533363226696701  0.4976055713823506  0.5181139372763790   T   T   T
  0.2800843036803423  0.7477799199658814  0.2458737247785777   T   T   T
  0.7379774681814599  0.7959658025284925  0.2333323197817727   T   T   T
