Sr Co O 
 1.0000000000000000
    -3.6940852014836119   -0.0000000000000000   -0.0000000000000000
     0.0000000000000000    3.9660256364493947    3.9660256364493929
     0.0000000000000000   15.9235779343319823  -15.9235779343319841
 Sr  Co  O  
   8   8  23
Selective dynamics
Direct
 -0.0000000000000000  0.0000000000000000 -0.0000000000000000   T   T   T
 -0.0000000000000000  0.5000000000000013  0.8694673730655067   T   T   T
 -0.0000000000000000  0.0000000000000013  0.7484585015931833   T   T   T
  0.0000000000000000  0.5000000000000018  0.6243669172484766   T   T   T
  0.0000000000000000  0.0000000000000007  0.4999999999999998   T   T   T
 -0.0000000000000000  0.5000000000000002  0.3756330827515233   T   T   T
 -0.0000000000000000  0.0000000000000004  0.2515414984068152   T   T   T
  0.0000000000000000  0.5000000000000001  0.1305326269344924   T   T   T
  0.4999999999999999  0.4999999999999998  0.0000000000000000   T   T   T
  0.4999999999999999  0.0000000000000013  0.8725036494633295   T   T   T
  0.4999999999999999  0.5000000000000004  0.7475246663412140   T   T   T
  0.4999999999999999  0.0000000000000009  0.6237645609156088   T   T   T
  0.4999999999999999  0.5000000000000002  0.4999999999999998   T   T   T
  0.4999999999999999  0.0000000000000002  0.3762354390843904   T   T   T
  0.4999999999999999  0.4999999999999998  0.2524753336587862   T   T   T
  0.4999999999999999 -0.0000000000000001  0.1274963505366701   T   T   T
  0.4999999999999999  0.2705746498975995  0.0564229645963240   T   T   T
  0.4999999999999999  0.2705746498976020  0.9435770354036753   T   T   T
  0.4999999999999999  0.7294253501024015  0.9435770354036753   T   T   T
 -0.0000000000000000  0.0000000000000018  0.8811796665891085   T   T   T
  0.4999999999999999  0.7491238723830305  0.8144881651551219   T   T   T
  0.4999999999999999  0.2508761276169718  0.8144881651551217   T   T   T
  0.0000000000000000  0.4999999999999996  0.7513822513639009   T   T   T
  0.4999999999999999  0.2499567992649588  0.6885477831899730   T   T   T
  0.4999999999999999  0.7500432007350412  0.6885477831899731   T   T   T
  0.0000000000000000  0.0000000000000009  0.6260673936401775   T   T   T
  0.4999999999999999  0.7503688141703473  0.5629150851642135   T   T   T
  0.4999999999999999  0.2496311858296536  0.5629150851642134   T   T   T
 -0.0000000000000000  0.5000000000000002  0.4999999999999998   T   T   T
  0.4999999999999999  0.2496311858296534  0.4370849148357861   T   T   T
  0.4999999999999999  0.7503688141703468  0.4370849148357862   T   T   T
  0.0000000000000000  0.0000000000000011  0.3739326063598221   T   T   T
  0.4999999999999999  0.7500432007350420  0.3114522168100266   T   T   T
  0.4999999999999999  0.2499567992649588  0.3114522168100267   T   T   T
 -0.0000000000000000  0.4999999999999996  0.2486177486360986   T   T   T
  0.4999999999999999  0.2508761276169708  0.1855118348448777   T   T   T
  0.4999999999999999  0.7491238723830291  0.1855118348448778   T   T   T
  0.0000000000000000  0.0000000000000001  0.1188203334108910   T   T   T
  0.4999999999999999  0.7294253501023997  0.0564229645963239   T   T   T
