Sr Co O 
 1.0000000000000000
    -3.8395867878239880    4.1214932402418878    4.0065704991357700
    -3.8163682550572218   -4.0938390462256322    4.0028509516366224
     3.6689345633851849   -0.0058515252931491    7.8499243472793241
 Sr  Co  O  
   6   6  12
Selective dynamics
Direct
 -0.0297140628736937  0.0019073414424116  0.0001161509624995   T   T   T
  0.1963807295403602  0.1647593252242551  0.3332171823708335   T   T   T
  0.3655320418404452  0.3397065781356873  0.6577304235204234   T   T   T
  0.4815197007003701  0.5131561035469271  0.0107585894059394   T   T   T
  0.6851469659662978  0.6535105631197400  0.3225747439273937   T   T   T
  0.8011346248262227  0.8269600885309809  0.6756029098129109   T   T   T
  0.1834280613714998  0.6745110277771803  0.3494280258368779   T   T   T
  0.3318299891240998  0.8092032407365052  0.6595453564048430   T   T   T
  0.5130677684912071 -0.0179356831190700  0.0065861555266573   T   T   T
  0.6535988981754605  0.1846023497857369  0.3267471778066756   T   T   T
  0.8348366775425666  0.3574634259301617  0.6737879769284891   T   T   T
 -0.0167613947048327  0.4921556388894870 -0.0160946925035444   T   T   T
  0.2679242096077874  0.8735406405823594  0.1355454646834590   T   T   T
  0.1492877692327276  0.8364252247096293  0.5151673826974034   T   T   T
  0.4995008820769843  0.0255735478736123  0.5354508641683969   T   T   T
  0.6671657845896828  0.1410931187930546  0.7978824691649359   T   T   T
  0.5833333333333336  0.0833333333333333  0.1666666666666662   T   T   T
  0.8987424570588800  0.2931260260843070  0.1977878686498733   T   T   T
  0.4426335558051717  0.4531951444084937  0.3397433456936394   T   T   T
 -0.0113087278688450  0.4867806400702216  0.4510089782857089   T   T   T
  0.5833333333333330  0.5833333333333331  0.6666666666666659   T   T   T
  1.0173788974339399  0.3302414419570383  0.8181659506359289   T   T   T
  0.1779753945355115  0.6798860265964465  0.8823243550476247   T   T   T
  0.7240331108614956  0.7134715222581728 -0.0064100123603066   T   T   T
