Sr Co O 
 1.0000000000000000
     3.8607164294883103    0.0000000000000000    0.0000000000000000
     0.0000000000000000    3.7466413907157667    0.0000000000000000
     0.0000000000000000    0.0000000000000000   32.2900008835867567
 Sr  Co  O  
   8   8  20
Selective dynamics
Direct
  0.0000000000000000  0.0000000000000000  0.0009908131760036   T   T   T
  0.0000000000000000  0.0000000000000000  0.1257263401846427   T   T   T
  0.0000000000000000  0.0000000000000000  0.2439507954813678   T   T   T
  0.0000000000000000  0.0000000000000000  0.3728350611048389   T   T   T
  0.0000000000000000  0.0000000000000000  0.4978423151369842   T   T   T
  0.0000000000000000  0.0000000000000000  0.6315555993553145   T   T   T
  0.0000000000000000  0.0000000000000000  0.7536383192984563   T   T   T
  0.0000000000000000  0.0000000000000000  0.8749711810071051   T   T   T
  0.4999999999999995  0.5000000000000008  0.0657816769619077   T   T   T
  0.4999999999999995  0.5000000000000008  0.1867004427014318   T   T   T
  0.4999999999999995  0.5000000000000008  0.3130202405391359   T   T   T
  0.4999999999999995  0.5000000000000008  0.4354445370924840   T   T   T
  0.4999999999999995  0.5000000000000008  0.5579077330075937   T   T   T
  0.4999999999999995  0.5000000000000008  0.6929523346783826   T   T   T
  0.4999999999999995  0.5000000000000008  0.8145492731546825   T   T   T
  0.4999999999999995  0.5000000000000008  0.9360606345069785   T   T   T
  0.0000000000000000  0.5000000000000008  0.0554639445898012   T   T   T
  0.4999999999999995  0.0000000000000000  0.0530489005913384   T   T   T
  0.4999999999999995  0.5000000000000008  0.1230870996598740   T   T   T
  0.0000000000000000  0.5000000000000008  0.1877444807875892   T   T   T
  0.4999999999999995  0.0000000000000000  0.1886562279860705   T   T   T
  0.4999999999999995  0.5000000000000008  0.2572117143672508   T   T   T
  0.0000000000000000  0.5000000000000008  0.3160717549608634   T   T   T
  0.4999999999999995  0.5000000000000008  0.3737317309385170   T   T   T
  0.0000000000000000  0.5000000000000008  0.4359885079467045   T   T   T
  0.4999999999999995  0.5000000000000008  0.4967543633201523   T   T   T
  0.4999999999999995  0.0000000000000000  0.5533700043760086   T   T   T
  0.4999999999999995  0.5000000000000008  0.6128267721989555   T   T   T
  0.0000000000000000  0.5000000000000008  0.6855432566407169   T   T   T
  0.4999999999999995  0.0000000000000000  0.6849064526988931   T   T   T
  0.4999999999999995  0.5000000000000008  0.7511157557218513   T   T   T
  0.0000000000000000  0.5000000000000008  0.8157882986112518   T   T   T
  0.4999999999999995  0.0000000000000000  0.8158022799457599   T   T   T
  0.4999999999999995  0.5000000000000008  0.8796400792102720   T   T   T
  0.0000000000000000  0.5000000000000008  0.9471001269830371   T   T   T
  0.4999999999999995  0.0000000000000000  0.9497209844949542   T   T   T
