Sr Co O 
 1.0000000000000000
    -3.6806551374208856    0.0000000000000000    0.0000000000000000
     0.0000000000000000    3.9609678809708568    3.9609678809708564
     0.0000000000000000   15.9561634607725100  -15.9561634607725118
 Sr  Co  O  
   8   8  21
Selective dynamics
Direct
 -0.0000000000000000 -0.0000000000000000  0.0051176219270910   T   T   T
 -0.0000000000000000  0.4999999999999989  0.8697324282098160   T   T   T
 -0.0000000000000000  0.0000000000000027  0.7455105645665283   T   T   T
 -0.0000000000000000  0.4999999999999989  0.6300447974296963   T   T   T
 -0.0000000000000000  0.0000000000000004  0.5000094502347802   T   T   T
 -0.0000000000000000  0.4999999999999985  0.3701807139787659   T   T   T
 -0.0000000000000000  0.0000000000000007  0.2507191077536626   T   T   T
 -0.0000000000000000  0.5000000000000001  0.1289617226392118   T   T   T
  0.5000000000000004  0.5000000000000002 -0.0030445420632859   T   T   T
  0.5000000000000004 -0.0000000000000013  0.8771271573401794   T   T   T
  0.5000000000000004  0.5000000000000008  0.7493812471624307   T   T   T
  0.5000000000000004  0.0000000000000013  0.6249247662487640   T   T   T
  0.5000000000000004  0.5000000000000006  0.5004454432785426   T   T   T
  0.5000000000000004 -0.0000000000000007  0.3741826507145058   T   T   T
  0.5000000000000004  0.4999999999999999  0.2501424524388883   T   T   T
  0.5000000000000004 -0.0000000000000003  0.1274627659028998   T   T   T
  0.5000000000000004  0.2698114752048287  0.0531212277488903   T   T   T
  0.5000000000000004  0.2501814631912722  0.9368245881392702   T   T   T
  0.5000000000000004  0.7498185368087298  0.9368245881392704   T   T   T
  0.5000000000000004  0.7691815993229018  0.8204411197562070   T   T   T
  0.5000000000000004  0.2308184006770965  0.8204411197562078   T   T   T
 -0.0000000000000000  0.4999999999999972  0.7552330285856977   T   T   T
  0.5000000000000004  0.2489681375538924  0.6880302430515183   T   T   T
  0.5000000000000004  0.7510318624461100  0.6880302430515176   T   T   T
 -0.0000000000000000  0.0000000000000018  0.6199990802561749   T   T   T
  0.5000000000000004  0.7295236930939123  0.5574754988629961   T   T   T
  0.5000000000000004  0.2704763069060869  0.5574754988629966   T   T   T
  0.5000000000000004  0.2701922936099651  0.4441760416579855   T   T   T
  0.5000000000000004  0.7298077063900364  0.4441760416579848   T   T   T
 -0.0000000000000000  0.0000000000000007  0.3814597410285996   T   T   T
  0.5000000000000004  0.7502936889684622  0.3138859231499525   T   T   T
  0.5000000000000004  0.2497063110315371  0.3138859231499527   T   T   T
 -0.0000000000000000  0.4999999999999992  0.2498047945799688   T   T   T
  0.5000000000000004  0.2513454974731545  0.1854620042452147   T   T   T
  0.5000000000000004  0.7486545025268452  0.1854620042452146   T   T   T
 -0.0000000000000000 -0.0000000000000004  0.1187716761468081   T   T   T
  0.5000000000000004  0.7301885247951710  0.0531212277488901   T   T   T
