Sr Co O 
 1.0000000000000000
    -3.8264046664681439    4.0605515417634246    3.9340135220748675
    -3.8506762677920596   -3.9944923704945134    3.8407606685018072
     3.9056155748594792    0.1047108886749948    7.8423496956671475
 Sr  Co  O  
   6   6  13
Selective dynamics
Direct
 -0.0036930826887217  0.0304158111615078 -0.0146676406266380   T   T   T
  0.1802049003200762  0.1733408001625307  0.3558726809351358   T   T   T
  0.3226557694220072  0.3510605241886873  0.6636999956572833   T   T   T
  0.4960578244519039  0.4836687676394043 -0.0051298156488311   T   T   T
  0.6975473505351067  0.6593594344445947  0.3227968773119799   T   T   T
  0.8092181007818726  0.8057899586921827  0.6845243279513658   T   T   T
  0.1800066619652605  0.6223625876799834  0.3150027377150953   T   T   T
  0.3262689516794162  0.8291702990315348  0.6594759574981410   T   T   T
  0.5032050556639022  0.0015446095498816  0.0248534789509303   T   T   T
  0.6671965103466706  0.1792458953323890  0.3457664652058017   T   T   T
  0.8365162545563908  0.3383976363280467  0.6578797885679640   T   T   T
 -0.0060351028188721  0.5018706984588208 -0.0020989133202787   T   T   T
  0.0956484810709297  0.6634554451121346  0.1281567015573835   T   T   T
  0.5010733611343564 -0.0431712351327650  0.4856414208652473   T   T   T
  0.1201688581368029  0.0827385915005243  0.6608003349024578   T   T   T
  0.2911678091218278  0.2121836169911431 -0.0379780680671859   T   T   T
  0.6063878318125752  0.1028223156593936  0.1608952046940132   T   T   T
  0.8970096008648700  0.2999983869161466  0.2029545246129052   T   T   T
  0.4346911868812164  0.4608866610569607  0.3513079589429061   T   T   T
  0.7390260012836869  0.1922448927707184  0.5485644920885567   T   T   T
 -0.0203414042474388  0.5523371229184574  0.4954307026750830   T   T   T
  0.5454156476352663  0.5897576304565220  0.6870906163661975   T   T   T
  0.8747990442851605  0.3939831674241141  0.8482129488459524   T   T   T
  0.1379818081413521  0.6830741938552729  0.7933643981927817   T   T   T
  0.6844893563732214  0.7501288227836728  0.0009161190810089   T   T   T
