Sr Co O 
 1.0000000000000000
    -3.9705570311379828    4.2798179940493606   -0.1084090088936506
     0.2732085077210181    4.3136117745174323    7.5313617154339640
     3.9131627957057482    8.5110814897087668    0.2086432381558802
 Sr  Co  O  
   6   6  13
Selective dynamics
Direct
  0.0299874488899514 -0.0132827772269602 -0.0096469196733747   T   T   T
  0.8388788600458498  0.5162662939797390  0.7878838310117384   T   T   T
  0.6818467867073166  0.0092422639756162  0.6873492833416770   T   T   T
  0.5056839026472474  0.5097226432376223  0.4703115464663998   T   T   T
  0.3288605286682367 -0.0105203414817215  0.3752482847387502   T   T   T
  0.1784120997879088  0.4988227810329632  0.1876839399814399   T   T   T
  0.7608417063502053  0.1966105239515507  0.3099147386893404   T   T   T
  0.5647186405602872  0.7514384487488573  0.0893853742797946   T   T   T
  0.4054744181666462  0.3105553115602295  0.8652297608623373   T   T   T
  0.2497497888189807  0.7370057452689640  0.7372918135663719   T   T   T
  0.0974488211062206  0.2467478223079486  0.5941847658934253   T   T   T
  0.9209450212217322  0.7618897826194795  0.4100314044667026   T   T   T
  0.7921400023081273  0.0111087254223467  0.2627870033696435   T   T   T
  0.4961104556390690  0.7290484733286194  0.9297201368017880   T   T   T
  0.7432770816255303  0.2284407146919128  0.8126768595489062   T   T   T
  0.2806985733740146  0.2337647799721552  0.7590554925377125   T   T   T
  0.1872749028519242  0.4963295939997661  0.9164497166959450   T   T   T
  0.5733326887182025  0.7151136038986600  0.5658412945792819   T   T   T
  0.0251225527645374  0.7830398304788165  0.5894661073240994   T   T   T
  0.1370123429609258 -0.0159401942556432  0.7008006285630690   T   T   T
  0.4210387778608622  0.2667574492182705  0.3903462155070960   T   T   T
  0.9186143647122579  0.2587570532753301  0.4039831981616563   T   T   T
  0.0420529717553031  0.5066562213390678  0.4934575323203050   T   T   T
  0.2657170348409126  0.8029667700792202  0.2412577741582312   T   T   T
  0.8047599632389378  0.7194583892148506  0.1792903039607165   T   T   T
