Sr Co O 
 1.0000000000000000
    -4.0360809067581194    4.0010285697996597   -0.0310285904669545
    -0.1289413204544001    3.8043587707780064    7.7690024671334248
     4.1086817945834611    8.0715025086717720   -0.2989399146949049
 Sr  Co  O  
   6   6  13
Selective dynamics
Direct
  0.0360776892917977 -0.0727029596643390  0.0109014628319545   T   T   T
  0.7808988631985764  0.5735790959892273  0.8064032354637612   T   T   T
  0.6260742189432200  0.0464404725219055  0.6440063178865874   T   T   T
  0.4830315793999322  0.5078491717444797  0.5005260063026780   T   T   T
  0.3089953983152384 -0.0287985705129391  0.3394472636075193   T   T   T
  0.1547268186231490  0.4804300467040915  0.1941631705643915   T   T   T
  0.7398725166081506  0.2629260768585442  0.2441856365090522   T   T   T
  0.5701292830501824  0.7124600201748272  0.1142693341431003   T   T   T
  0.3055483900319458  0.2419523166065139  0.9384451641233950   T   T   T
  0.2068533819596211  0.7964599579868957  0.7119251365980754   T   T   T
  0.0855631207764614  0.2514570454715158  0.5523304386091867   T   T   T
  0.9037496369397607  0.7223944273750903  0.4298807697506269   T   T   T
  0.0705029542585437  0.1614503258466108  0.1103458774509095   T   T   T
  0.6208061423904567  0.4863702729932785  0.1027089078096438   T   T   T
  1.1038963187492212  0.6592064342717909  0.9108599258399824   T   T   T
  0.5243735258808788  0.8502584455271232  0.9173965409223009   T   T   T
  0.5310974917312028  0.2989693745182166  0.7645316493829023   T   T   T
  0.5321642999613851  0.7501060557118582  0.5808964517836712   T   T   T
 -0.0003100194475164  0.8225906559593662  0.5656263624517951   T   T   T
  0.1264089751648628  0.0321515792154183  0.7111290841534939   T   T   T
  0.4234564680485202  0.2046983289884587  0.3817081643816962   T   T   T
  0.8619020375526025  0.2795097732572971  0.4141418360274701   T   T   T
  0.0323686101179722  0.4792188679821921  0.5543188967877908   T   T   T
  0.2321898749554126  0.7347786382829464  0.2550845360130318   T   T   T
  0.7396222655966098  0.7462442224973092  0.2447677959647862   T   T   T
