Sr Co O 
 1.0000000000000000
    -3.9284222637213895   -0.0302879763717773   -3.8857534599006396
    -0.0172501117481219   -8.5533266441251481   -0.0550686303062124
    -3.7976548890043431    4.3145840722270510    7.6751040134051864
 Sr  Co  O  
   6   6  12
Selective dynamics
Direct
 -0.0183327473629691 -0.0205226480989723 -0.0523363864151418   T   T   T
  0.5864946901181319  0.1559517965188493  0.3186034501420266   T   T   T
  0.3883084641764500  0.3754467766048476  0.7219740608787251   T   T   T
  0.0111841472905475  0.4892472945530882  0.0153590810740874   T   T   T
  0.6930398662906267  0.6401823517015143  0.3451066081515637   T   T   T
  0.3389065495969061  0.8113635707617529  0.6651400010250498   T   T   T
  0.4358944665567288  0.7653264658214056  0.0111202722360300   T   T   T
  0.2287448663534322  0.8821118129719124  0.3425599625815048   T   T   T
  0.7818844441183378  0.0995962521701721  0.6615831107761037   T   T   T
  0.5088663730898630  0.2131053030432339  0.0113930444970578   T   T   T
  0.2011740001311550  0.4311500506361753  0.3489746090188146   T   T   T
  0.8688871854715888  0.5112496863787409  0.6288919550476029   T   T   T
  0.5666876084253035 -0.0207939767115108  0.0023968418756964   T   T   T
  0.2099236449294873  0.8841287001809000  0.1487944212067331   T   T   T
  0.4354992541045032  0.0840445723432603  0.5109741823771466   T   T   T
  0.9359364944296964  0.3282286974942203  0.7072478965576173   T   T   T
  0.6955031187872739  0.2078509899956024  0.8805587601036361   T   T   T
  0.5789383751756336  0.5781139147772162  0.0452113463885432   T   T   T
  0.2849755965351596  0.2888245376574714  0.1386319889786704   T   T   T
  0.4966454312674994  0.5037959095149666  0.5477528050109891   T   T   T
  0.1613507381260043  0.6679729442200706  0.3404297115420623   T   T   T
 -0.1029561993488614  0.4037653195423130  0.3956531064729651   T   T   T
  0.1632136512490745  0.6740712157207930  0.7948571356050724   T   T   T
  0.8825635487295634  0.8791216769885314  0.6357886035349216   T   T   T
