Sr Co O 
 1.0000000000000000
     3.8356081275232143   -0.0000000000000000    0.0000000000000000
     0.0000000000000000    3.8356081275232028    0.0000000000000001
     0.0000000000000000    0.0000000000000006   28.4100555734398590
 Sr  Co  O  
   7   7  18
Selective dynamics
Direct
 -0.0000000000000000  0.0000000000000000 -0.0074315023563332   T   T   T
  0.0000000000000000  0.0000000000000000  0.1224020601452915   T   T   T
  0.0000000000000000 -0.0000000000000000  0.2990964353931940   T   T   T
 -0.0000000000000000  0.0000000000000000  0.4374714161807187   T   T   T
 -0.0000000000000000 -0.0000000000000000  0.5755379758411584   T   T   T
 -0.0000000000000000  0.0000000000000000  0.7150641513360155   T   T   T
 -0.0000000000000000  0.0000000000000000  0.8524009916232433   T   T   T
  0.4999999999999999  0.4999999999999999  0.0633908306820109   T   T   T
  0.4999999999999999  0.4999999999999999  0.2082546399863931   T   T   T
  0.4999999999999999  0.4999999999999999  0.3684476524788355   T   T   T
  0.4999999999999999  0.4999999999999999  0.5065258077873409   T   T   T
  0.4999999999999999  0.4999999999999998  0.6452763620584558   T   T   T
  0.4999999999999999  0.4999999999999998  0.7841351298517178   T   T   T
  0.4999999999999999  0.4999999999999998  0.9217638699713939   T   T   T
 -0.0000000000000000  0.4999999999999999  0.0603856927331876   T   T   T
  0.4999999999999999  0.0000000000000000  0.0603856927331876   T   T   T
  0.4999999999999999  0.4999999999999999  0.1457675753201913   T   T   T
  0.4999999999999999  0.4999999999999999  0.2692666432084467   T   T   T
 -0.0000000000000000  0.4999999999999999  0.3563588151938943   T   T   T
  0.4999999999999999 -0.0000000000000000  0.3563588151938943   T   T   T
  0.4999999999999999  0.4999999999999999  0.4319376969886996   T   T   T
 -0.0000000000000000  0.4999999999999999  0.5017232403457622   T   T   T
  0.4999999999999999 -0.0000000000000000  0.5017232403457621   T   T   T
  0.4999999999999999  0.4999999999999998  0.5731988234498719   T   T   T
  0.0000000000000000  0.4999999999999998  0.6457062784780718   T   T   T
  0.4999999999999999 -0.0000000000000000  0.6457062784780719   T   T   T
  0.4999999999999999  0.4999999999999998  0.7182191768458951   T   T   T
 -0.0000000000000000  0.4999999999999998  0.7895619926241136   T   T   T
  0.4999999999999999 -0.0000000000000000  0.7895619926241133   T   T   T
  0.4999999999999999  0.4999999999999999  0.8587867700573677   T   T   T
  0.0000000000000000  0.4999999999999998  0.9372220144855828   T   T   T
  0.4999999999999999  0.0000000000000000  0.9372220144855828   T   T   T
