Sr Co O 
 1.0000000000000000
     3.5262474231051582    0.0000000000000000    0.0000000000000000
     0.0000000000000000    8.4210790799290791    0.0000000000000000
     0.0000000000000000    0.0000000000000000   11.8723947785302979
 Sr  Co  O  
   6   6  12
Selective dynamics
Direct
 -0.0000000000000000  0.0081655694653461 -0.0180452006697948   T   T   T
  0.0000000000000000  0.0081655694653461  0.3513785340031282   T   T   T
  0.0000000000000000 -0.0170114686012575  0.6666666666666664   T   T   T
  0.0000000000000000  0.4842709686831245 -0.0066778462570219   T   T   T
 -0.0000000000000000  0.4842709686831245  0.3400111795903552   T   T   T
  0.0000000000000000  0.4950984086533446  0.6666666666666664   T   T   T
  0.4999999999999995  0.2773126275469434  0.1666666666666667   T   T   T
  0.4999999999999995  0.2460140145724448  0.5063031919329113   T   T   T
  0.4999999999999995  0.2460140145724448  0.8270301414004217   T   T   T
  0.4999999999999995  0.7530801171458941  0.1666666666666667   T   T   T
  0.4999999999999995  0.7316006282485512  0.5006142704934052   T   T   T
  0.4999999999999995  0.7316006282485512  0.8327190628399282   T   T   T
  0.4999999999999995  0.2305133239846983  0.0166747934868686   T   T   T
  0.4999999999999995  0.2305133239846983  0.3166585398464648   T   T   T
  0.4999999999999995  0.0243911130512051  0.5026133098422038   T   T   T
  0.4999999999999995  0.2568323233156695  0.6666666666666664   T   T   T
  0.4999999999999995  0.0243911130512051  0.8307200234911299   T   T   T
  0.0000000000000000  0.8518546973442432  0.1666666666666667   T   T   T
  0.4999999999999995  0.5244525869251944  0.1666666666666667   T   T   T
  0.0000000000000000  0.7422446979980584  0.4285581072958792   T   T   T
  0.4999999999999995  0.4675893655077571  0.4916467036375691   T   T   T
  0.4999999999999995  0.7388013801220297  0.6666666666666664   T   T   T
 -0.0000000000000000  0.7422446979980584  0.9047752260374545   T   T   T
  0.4999999999999995  0.4675893655077571  0.8416866296957641   T   T   T
