Sr Co O 
 1.0000000000000000
     3.9834789062777896   -0.0802713822056224    4.0345851123110101
    -3.9624026157481782    3.5687601842507162    3.9441760351477826
    -4.2604280141404258   -7.9036096742760753    0.4106976114429578
 Sr  Co  O  
   5   5  10
Selective dynamics
Direct
  0.0171138919733936 -0.0044671640946654  0.0264104437946131   T   T   T
  0.6444738606141134  0.4905037301579270  0.2534858898107782   T   T   T
  0.2065426497964034  0.8423984694006706  0.4231211939123715   T   T   T
  0.7849190069273986  0.1851538814832423  0.5670660426518606   T   T   T
  0.3407238408834742  0.5094409504397935  0.7468891504267795   T   T   T
  0.4460026859917008 -0.0005214918958875  0.8051769571651949   T   T   T
 -0.0507031915770821  0.5303475249163260 -0.0193746305392441   T   T   T
  0.5883689093776239  0.9837203490498131  0.2049752513656661   T   T   T
  0.1863585642862293  0.3373011418322919  0.3766322504049598   T   T   T
  0.7718939371496943  0.6875559730006714  0.6010653230458328   T   T   T
  0.4233412128018647 -0.1250236326676087 -0.0272900257480228   T   T   T
  0.9727080601467377  0.6806045399846309  0.1614112661823852   T   T   T
  0.3502696840002367  0.1929109619984002  0.2358058752296305   T   T   T
  0.6307715049612848  0.8450005309868427  0.3889040208787726   T   T   T
  0.8928195618382807  0.1644037550677565  0.2734854053398488   T   T   T
  0.0139880962584089  0.5406542846901315  0.4986468705235733   T   T   T
  0.2526571419190372  0.1329523916955324  0.6545854657161346   T   T   T
  0.4833157468589117  0.4898006227825017  0.5031105483705323   T   T   T
  0.7420385319866886  0.9342991020415783  0.7472707940097174   T   T   T
  0.9023963296571912  0.4829637764640941  0.7786218416008706   T   T   T
