Sr Co O 
 1.0000000000000000
     3.7735160778706511    0.0000000000000000    0.0000000000000000
     0.0000000000000000    7.6350641581649326    0.0000000000000000
     0.0000000000000000    0.0000000000000000   12.4815630036578380
 Sr  Co  O  
   6   6  12
Selective dynamics
Direct
  0.0000000000000000  0.0024316338348136 -0.0141581207850165   T   T   T
 -0.0000000000000000  0.0230779690658860  0.3311828757058230   T   T   T
  0.0000000000000000  0.0060864639766057  0.6901363605179234   T   T   T
 -0.0000000000000000  0.4975683661651866 -0.0141581207850165   T   T   T
  0.0000000000000000  0.4769220309341138  0.3311828757058230   T   T   T
 -0.0000000000000000  0.4939135360233946  0.6901363605179234   T   T   T
  0.4999999999999997  0.2500000000000000  0.1660442990212231   T   T   T
  0.4999999999999997  0.2500000000000000  0.4872532042960713   T   T   T
  0.4999999999999997  0.2500000000000000  0.8466477326768659   T   T   T
  0.4999999999999997  0.7500000000000007  0.1788022061153535   T   T   T
  0.4999999999999997  0.7500000000000007  0.5131619970408652   T   T   T
  0.4999999999999997  0.7500000000000007  0.8333908945498376   T   T   T
  0.4999999999999997  0.2500000000000000  0.0177850543773173   T   T   T
  0.0000000000000000  0.2500000000000000  0.1751263435095998   T   T   T
  0.4999999999999997  0.2500000000000000  0.3291730832493773   T   T   T
  0.4999999999999997 -0.0219350581402767  0.4627958568549898   T   T   T
  0.4999999999999997  0.2500000000000000  0.6324646572598135   T   T   T
  0.0000000000000000  0.2500000000000000  0.8330976049582731   T   T   T
  0.4999999999999997  0.0021158826646825  0.8376072781080005   T   T   T
  0.4999999999999997  0.7500000000000007  0.0353811880178802   T   T   T
  0.4999999999999997  0.5219350581402765  0.4627958568549898   T   T   T
  0.4999999999999997  0.7500000000000007  0.6609151776668688   T   T   T
  0.0000000000000000  0.7500000000000007  0.8422947188516116   T   T   T
  0.4999999999999997  0.4978841173353175  0.8376072781080005   T   T   T
