Sr Co O 
 1.0000000000000000
     3.7340067172838372    0.0000000000000000    0.0000000000000000
    -0.0000000000000000    7.9102805739124147    0.0000000000000000
     0.0000000000000000    0.0000000000000000   11.8438979836421652
 Sr  Co  O  
   6   6  17
Selective dynamics
Direct
 -0.0000000000000000 -0.0082613206451822 -0.0078895714738155   T   T   T
 -0.0000000000000000 -0.0082613206451822  0.3412229048071488   T   T   T
  0.0000000000000000 -0.0024764793009278  0.6666666666666665   T   T   T
  0.0000000000000000  0.5082613206451818 -0.0078895714738155   T   T   T
 -0.0000000000000000  0.5082613206451818  0.3412229048071488   T   T   T
 -0.0000000000000000  0.5024764793009273  0.6666666666666665   T   T   T
  0.5000000000000003  0.2499999999999997  0.1666666666666667   T   T   T
  0.5000000000000003  0.2499999999999997  0.5032835155952551   T   T   T
  0.5000000000000003  0.2499999999999997  0.8300498177380777   T   T   T
  0.5000000000000003  0.7499999999999988  0.1666666666666667   T   T   T
  0.5000000000000003  0.7499999999999988  0.5021116081012635   T   T   T
  0.5000000000000003  0.7499999999999988  0.8312217252320692   T   T   T
  0.5000000000000003  0.2499999999999997  0.0138079182964692   T   T   T
  0.5000000000000003  0.0222945474863900  0.1666666666666667   T   T   T
  0.5000000000000003  0.2499999999999997  0.3195254150368640   T   T   T
  0.0000000000000000  0.2499999999999997  0.4905972050048928   T   T   T
  0.5000000000000003 -0.0001272217704891  0.4993422095157224   T   T   T
  0.5000000000000003  0.2499999999999997  0.6666666666666665   T   T   T
  0.0000000000000000  0.2499999999999997  0.8427361283284402   T   T   T
  0.5000000000000003 -0.0001272217704891  0.8339911238176113   T   T   T
  0.5000000000000003  0.7499999999999988 -0.0021650370738512   T   T   T
 -0.0000000000000000  0.7499999999999988  0.1666666666666667   T   T   T
  0.5000000000000003  0.4777054525136093  0.1666666666666667   T   T   T
  0.5000000000000003  0.7499999999999988  0.3354983704071847   T   T   T
 -0.0000000000000000  0.7499999999999988  0.5015623717871869   T   T   T
  0.5000000000000003  0.5001272217704886  0.4993422095157224   T   T   T
  0.5000000000000003  0.7499999999999988  0.6666666666666665   T   T   T
 -0.0000000000000000  0.7499999999999988  0.8317709615461459   T   T   T
  0.5000000000000003  0.5001272217704886  0.8339911238176113   T   T   T
