Sr Co O 
 1.0000000000000000
    -3.9282875491659621    4.1653700562182348    4.0425133457100246
    -3.9413296089281631   -4.1758352073959299    4.0375914376007520
     3.6227120040883580    0.0197849236466231    7.7654384383936339
 Sr  Co  O  
   6   6  12
Selective dynamics
Direct
  0.0264468838634987  0.0430626864355737  0.0177184655041722   T   T   T
  0.1584763806468239  0.1993593401846834  0.3415357224872804   T   T   T
  0.3557328302602487  0.3143455385021831  0.6865409755925439   T   T   T
  0.4805844762333779  0.5027831386401753 -0.0173951338163117   T   T   T
  0.6781728827203054  0.6206861210184151  0.3236419711523697   T   T   T
  0.7837943768946860  0.8303920520310545  0.6343797321454272   T   T   T
  0.2012913747493524  0.6348370892604358  0.3806033709900679   T   T   T
  0.3047108110789380  0.8118587934496011  0.6596142785960099   T   T   T
  0.5629989749727947 -0.0142699865002593  0.0302956818693302   T   T   T
  0.6489197914719794  0.1833125789064437  0.3401809298788333   T   T   T
  0.8272816039652036  0.3629506288776302  0.6477882012463653   T   T   T
 -0.0411517869894214  0.5398004769326429 -0.0356693887672545   T   T   T
  0.1545379789419473  0.8417634739756745  0.4843287799940876   T   T   T
  0.4295291773851831  0.0402193360783152  0.5494055709943682   T   T   T
  0.3372988304915168  0.1913533038303425 -0.0008480214533214   T   T   T
  0.6968335696671701 -0.0142530234552610  0.1975268154426305   T   T   T
  0.8820538691792026  0.3381016255091473  0.1745292676742788   T   T   T
  0.4172249929076576  0.4429337326936826  0.2915987295859525   T   T   T
  0.7564111490618289  0.1990160656889932  0.5368878755828311   T   T   T
 -0.0311314148467186  0.5338804032829492  0.4422441272773904   T   T   T
  0.5526763527267362  0.5729257571894352  0.6632910584771723   T   T   T
  0.9685743984964945  0.3570584450372089  0.8096750316347839   T   T   T
  0.1591892135453411  0.7170238538483870  0.8956304435107892   T   T   T
  0.6895433119757353  0.7508585195462765 -0.0535045307156458   T   T   T
