Sr Co O 
 1.0000000000000000
     3.7580536815531582    0.0000000000000000    0.0000000000000000
     0.0000000000000000    8.4423197442150428    0.0519840862240622
     0.0000000000000000    0.0130002033228666   11.5678375367603916
 Sr  Co  O  
   6   6  12
Selective dynamics
Direct
 -0.0000000000000000 -0.0151958274660573 -0.0137822433620491   T   T   T
 -0.0000000000000000 -0.0138669121215190  0.3618374485886183   T   T   T
  0.0000000000000000 -0.0364305799604151  0.6659539206500210   T   T   T
  0.0000000000000000  0.5151958274660587  0.0137822433620491   T   T   T
 -0.0000000000000000  0.5364305799604158  0.3340460793499764   T   T   T
  0.0000000000000000  0.5138669121215175  0.6381625514113810   T   T   T
  0.5000000000000014  0.2409441287342488  0.1579327520120794   T   T   T
  0.5000000000000014  0.2499999999999995  0.4999999999999991   T   T   T
  0.5000000000000014  0.2590558712657525  0.8420672479879175   T   T   T
  0.5000000000000014  0.7928181719421291  0.1703064809041159   T   T   T
  0.5000000000000014  0.7500000000000000  0.4999999999999991   T   T   T
  0.5000000000000014  0.7071818280578680  0.8296935190958793   T   T   T
  0.5000000000000014  0.0334112488717045  0.1377448537205169   T   T   T
  0.5000000000000014  0.4482117454258191  0.1692663129624332   T   T   T
  0.0000000000000000  0.2499999999999995  0.4999999999999991   T   T   T
  0.5000000000000014  0.0227657283397601  0.5104022693691828   T   T   T
  0.5000000000000014  0.0517882545741811  0.8307336870375649   T   T   T
 -0.0000000000000000  0.7527614996142724  0.1295712646191853   T   T   T
  0.5000000000000014  0.7645325612021557  0.3338014662710180   T   T   T
  0.0000000000000000  0.7500000000000000  0.4999999999999991   T   T   T
  0.5000000000000014  0.4772342716602386  0.4895977306308159   T   T   T
  0.5000000000000014  0.7354674387978442  0.6661985337289780   T   T   T
  0.0000000000000000  0.7472385003857244  0.8704287353808154   T   T   T
  0.5000000000000014  0.4665887511282941  0.8622551462794801   T   T   T
