Sr Co O 
 1.0000000000000000
    -3.8053000397335421    4.1895012024773450    3.9704066194772665
    -3.5361396845478983   -3.9751958950480928    4.0269109518957036
     3.9156358142407530   -0.1899086426593432    8.2348465817816336
 Sr  Co  O  
   6   6  12
Selective dynamics
Direct
  0.0255313915427182 -0.0415891575238289 -0.0247441895605124   T   T   T
  0.1518960419581028  0.1490816266531024  0.3267875160056460   T   T   T
  0.3046832227933157  0.3913826202723569  0.6705679512186299   T   T   T
  0.5584951083791999  0.4339000515974160  0.0197807674658436   T   T   T
  0.6654047260194345  0.7516587286156041  0.3180950177676725   T   T   T
  0.8055394608085583  0.8196029995787997  0.6902609988682470   T   T   T
  0.1859550194114648  0.5936387897014488  0.3180413751250215   T   T   T
  0.3628506546144048  0.8333599259731613  0.6829917947665216   T   T   T
  0.5060121779232962 -0.0399405279423497 -0.0137346300431136   T   T   T
  0.6552796866849602  0.2175935842604599  0.3763413326219249   T   T   T
  0.8292017698373710  0.3835954451962702  0.6447578634573926   T   T   T
 -0.0074930153919961  0.4830548091386132 -0.0022257682879166   T   T   T
  0.1589436400014394  0.5470575960487581  0.1336834930649998   T   T   T
  0.4661980458414616  0.0083243407923947  0.4769652747634128   T   T   T
  0.3831398410544752  1.0033413598652743  0.8227573435456059   T   T   T
  0.4725666157450959  0.0778711867589628  0.1441784375045576   T   T   T
  0.8725115868244016  0.2171493825557692  0.1759167631177249   T   T   T
  0.4469424841965913  0.5001408030635361  0.3708482002138614   T   T   T
  0.8300012271269944  0.1887256704641678  0.5297372493498637   T   T   T
 -0.0417434378863382  0.6388449085347691  0.4757677689989326   T   T   T
  0.5596903729822649  0.5477667752593239  0.7267883732055355   T   T   T
  0.9438158583418359  0.3475192140383253  0.8326835110650961   T   T   T
  0.1211569668034968  0.7149653393075051  0.7880072692287876   T   T   T
  0.7434205847270297  0.7329546318642161  0.0157460962951165   T   T   T
