Sr Co O 
 1.0000000000000000
    -3.7928345363595630    4.2274283652282847    4.0470888560127261
    -3.8427030592208533   -4.3441639805196672    4.1100969767448925
     3.5106121298370905   -0.0331778210019059    7.8561856567283987
 Sr  Co  O  
   6   6  12
Selective dynamics
Direct
 -0.0359839909647812  0.0171836906586329  0.0083652155981928   T   T   T
  0.1947829086795012  0.1473142545338350  0.3569082057676141   T   T   T
  0.2884688754566448  0.3446316134655704  0.6509233698926100   T   T   T
  0.5157110974767302  0.4796688000635712  0.0025602862078403   T   T   T
  0.6602141037407497  0.6939499391596117  0.3534169058380129   T   T   T
  0.8623453344570639  0.8718819336548854  0.6429194099147557   T   T   T
  0.2014125547546420  0.6574907718334833  0.3208140841524579   T   T   T
  0.3255859979127873  0.7809494384027952  0.6915752572363697   T   T   T
  0.4927670105813608 -0.0702977806558630  0.0438817974954109   T   T   T
  0.6789151883862292  0.2143503618732382  0.3697096788798896   T   T   T
  0.8060483434788345  0.3956037080538526  0.6502978195753797   T   T   T
 -0.0279432119670147  0.5432615082693805 -0.0486936794416829   T   T   T
  0.2827762733008174  0.8002231958053695  0.0774570614232909   T   T   T
  0.9002520569878283  1.0172166084436314  0.3214734983200125   T   T   T
  0.2646553166396622  0.7636055449612552  0.4805124613361101   T   T   T
  0.1476048983435488  0.0380852518600503  0.6873468234730274   T   T   T
  0.5310363304960637  0.1074035516689509  0.1392005354596969   T   T   T
  0.4660008940599071  0.4254683017011078  0.3239598309375875   T   T   T
  0.6658614505364384  0.2167327643057674  0.6057411902626233   T   T   T
 -0.0012798502253004  0.4818374505207552  0.4253675929592034   T   T   T
  0.6194787951709296  0.6696007545353240  0.6595740330735587   T   T   T
  0.8916175104741471  0.3717411037039740  0.8602508726149801   T   T   T
  0.2472902237496539  0.5238118074000201  0.8652742868730843   T   T   T
  0.7723819777581326  0.7582853233967657  0.0111634868416582   T   T   T
