Sr Co O 
 1.0000000000000000
    -4.1467977629615325    3.7988709887941248    3.9138398856452246
    -3.9600560954192434   -3.7193842604237140    4.0209723602847154
     4.1601782480747316   -0.2070111168094666    8.0380233318058298
 Sr  Co  O  
   6   6  12
Selective dynamics
Direct
  0.0304207120051244 -0.0059252596943360 -0.0128788636098668   T   T   T
  0.1607206472195662  0.1196484516750253  0.3280995179403055   T   T   T
  0.3322696640810191  0.3503155579113700  0.6849868016951595   T   T   T
  0.5330980402792894  0.5183660285820435 -0.0086435165952896   T   T   T
  0.6700568098340524  0.6127025276745682  0.3329219815676589   T   T   T
  0.8004247053323449  0.8753793155137281  0.6695647120156852   T   T   T
  0.1652346768018026  0.6315061288537454  0.3745868014535844   T   T   T
  0.3335234245097188  0.8041156744758137  0.6892982868590540   T   T   T
  0.5453865002108579  0.0113022565143705 -0.0111965658837484   T   T   T
  0.6511475658077353  0.1794997991349301  0.2908149584895660   T   T   T
  0.8279495872919307  0.3810221288874706  0.6647623828164765   T   T   T
 -0.0094224295691954  0.5120083286957762 -0.0105246385426847   T   T   T
  0.3070731670195099  0.7524806032810982  0.2001910380423245   T   T   T
  0.1720595390848747  0.7902190540933166  0.5329739023133636   T   T   T
  0.4035513093322185  0.9542139259504789  0.8333170012712464   T   T   T
  0.6903166212231374  0.1873533677081547  0.8159707287989928   T   T   T
  0.4776141461951731  0.1676210932523629  0.1644850538446648   T   T   T
  0.8795696210943733  0.2871478427102243  0.1582193163998409   T   T   T
  0.6530659612468479  0.2291452792872707  0.4776517556058091   T   T   T
  0.0455880066318815  0.4170083200439446  0.4690696887514099   T   T   T
  0.6158860769019771  0.6759853756169261  0.5935892292272676   T   T   T
  0.9627426851893371  0.4054021926692549  0.8235599227563094   T   T   T
  0.2104223325498367  0.6308937104210398  0.8727936546663360   T   T   T
  0.7913006586387514  0.7625882596192270  0.0663870228602680   T   T   T
