Sr Co O 
 1.0000000000000000
     4.0507168633952411   -0.0021824289742867    4.3174341739669213
     3.7377621561602332   -3.7602255881799462   -4.0088689871594250
     3.8982089268005340    7.8705950400276077   -4.1814728204452187
 Sr  Co  O  
   6   6  12
Selective dynamics
Direct
  0.0607465455915583  0.0640600492732823 -0.0191678855461291   T   T   T
  0.4385834930809555  0.6296090081465631  0.8084779288018165   T   T   T
 -0.0068786535646135  0.3318606155227627  0.6263972950635419   T   T   T
  0.4985977380345064 -0.0187638661931377  0.5001968783357621   T   T   T
  0.0579373643560796  0.6513624171098710  0.3421431887669037   T   T   T
  0.4954822308164949  0.3453306924124572  0.1814631981805875   T   T   T
  0.6160627522573341  0.8370087796468654  0.1539224134289771   T   T   T
 -0.0489807818482818  0.5602258162396653  0.0100072854321423   T   T   T
  0.5347114972873608  0.1259972814828102  0.8435291005477444   T   T   T
 -0.0582358710628526  0.7995049379315480  0.6899919107698177   T   T   T
  0.5270379037622738  0.4920179759835364  0.4678494165890934   T   T   T
  0.0013535680213942  0.1891350717274369  0.3029320411434891   T   T   T
  0.4913150548640541  0.0512364588593944  0.0331773352446367   T   T   T
  0.6426805301987434  0.6042304046914121  0.0314758683906895   T   T   T
  0.0713050098033021  0.7353471967989782  0.8768480062233510   T   T   T
  0.2840393164332046  0.2770665704516535  0.8052279553256626   T   T   T
  0.7045078230849481  0.6009768977429348  0.6215031288316771   T   T   T
 -0.2507607670110141  0.0398130419145248  0.7227585204269996   T   T   T
  0.1919724021455805  0.7402753239649136  0.5796259890963588   T   T   T
  0.2615512211756943  0.2843598248894599  0.4310377121361250   T   T   T
  0.4773631491701021  0.7089264059641623  0.3206546747950580   T   T   T
  0.7501200710788275  0.2957199071875127  0.3995517022483501   T   T   T
  0.9304584868080038 -0.0607229203787831  0.2130444580527540   T   T   T
  0.0790300336205006  0.3820888719281680  0.1406851036659297   T   T   T
