Sr Co O 
 1.0000000000000000
    -3.9289725521690837    0.0171118061889949   -3.9289725521690921
     0.0173346650756708   -7.8460438105096229    0.0173346650756708
    -3.9818374252688717    3.9144660021603173    7.8934753123622938
 Sr  Co  O  
   6   6  13
Selective dynamics
Direct
 -0.0225764010895533 -0.0225764010895533 -0.0451528021791065   T   T   T
  0.6694882998008805  0.1694882998008803  0.3389765996017601   T   T   T
  0.3343611494828503  0.3343611494828506  0.6687222989657007   T   T   T
  0.0097777020946078  0.5097777020946086  0.0195554041892153   T   T   T
  0.6811190935989963  0.6811190935989960  0.3622381871979899   T   T   T
  0.3246422587376084  0.8246422587376093  0.6492845174752159   T   T   T
  0.5476867382626079  0.7233253761182651 -0.0114604280396691   T   T   T
  0.1356057260717584  0.9187271781048701  0.3428665022928573   T   T   T
  0.8063322159965192  0.0813103507361351  0.6632422590806082   T   T   T
  0.4408528336977235  0.2652141958420683 -0.0114604280396688   T   T   T
  0.2072607762210988  0.4241393241879893  0.3428665022928568   T   T   T
  0.8569100430840909  0.5819319083444732  0.6632422590806076   T   T   T
  0.7245292686711954  0.6043567277831510  0.8293601887054134   T   T   T
  0.8508330790635970  0.9040204265429161  0.1566610772860790   T   T   T
  0.4831309391162298  0.0303807701909061  0.4828041566801204   T   T   T
 -0.0148657223789184  0.0418645186498662  0.5070898681801830   T   T   T
  0.1048309200342188  0.2250034609222638  0.8293601887054149   T   T   T
  0.6199436028643447  0.1347498639430208  0.8437304252484498   T   T   T
  0.5357372764993816  0.5357372764993823  0.0714745529987623   T   T   T
  0.3058279982224828  0.2526406507431653  0.1566610772860798   T   T   T
  0.5219555905591006  0.4652253495303167  0.5070898681801813   T   T   T
  0.1592855053054839  0.6592855053054840  0.3185710106109662   T   T   T
 -0.0003267824361080  0.4524233864892150  0.4828041566801206   T   T   T
  0.2237868223841053  0.7089805613054304  0.8437304252484501   T   T   T
  0.8272044151670327  0.8272044151670331  0.6544088303340642   T   T   T
