Sr Co O 
 1.0000000000000000
    -3.9099234836835515   -0.0000000000000000   -3.8489202748488895
    -0.0000000000000000   -8.0078030402948794   -0.0000000000000000
    -3.8799473532305613    4.0039015201474397    7.6676055627076360
 Sr  Co  O  
   6   6  13
Selective dynamics
Direct
 -0.0036470784692001  0.0064143474478982 -0.0222115247602400   T   T   T
  0.6703137451358671  0.1952925388748048  0.3555448580935738   T   T   T
  0.3453381191082308  0.3526319302243715  0.6899773406891853   T   T   T
  0.0020090727311010  0.4562450155318370  0.0031050949499051   T   T   T
  0.6646575939355658  0.6198065872485984  0.3302282383834286   T   T   T
  0.3213285475584363  0.8293212562018540  0.6433559926441500   T   T   T
  0.5226313734013168  0.7509211106280109  0.0184875999492941   T   T   T
  0.1440352932653501  0.8991001773453836  0.3148457333840395   T   T   T
  0.8099851746161060  0.0920485277148701  0.6691843973765674   T   T   T
  0.4964313304740469  0.2484485514435380  0.0004579576310989   T   T   T
  0.1702353361926197  0.4146572604791059  0.3328753757022349   T   T   T
  0.8566814920505601  0.5895307970049695  0.6641489359567672   T   T   T
  0.8333333333333336  0.9024294740432025  0.1666666666666671   T   T   T
  0.4336878408336228  0.0423513420891545  0.4755811336330809   T   T   T
  0.1740333356505378  0.1608918477611077  0.8283853154824570   T   T   T
  0.8347146470097636  0.3624345397373469  0.7025339441219842   T   T   T
  0.6469347043847378  0.1264858484544518  0.8403045910154017   T   T   T
  0.8333333333333336  0.3062518892677864  0.1666666666666671   T   T   T
  0.5147547092834830  0.5175698934462034  0.0189739701039657   T   T   T
  0.3333333333333332  0.2832125041201672  0.1666666666666668   T   T   T
  0.4926333310161290  0.4991731989453175  0.5049480178508780   T   T   T
  0.1519119573831840  0.6652625900089046  0.3143593632293680   T   T   T
  0.0197319622819283  0.4528479241057166  0.4930287423179328   T   T   T
  0.2329788258330444  0.7334368751227404  0.8577521997002540   T   T   T
  0.8319520196569030  0.8265672622820296  0.6307993892113501   T   T   T
