Sr Co O 
 1.0000000000000000
    -3.8044173777893873    4.0586071169781599    0.0239422353831858
     3.7951794665606520    4.0481557259020500    0.0223405907455338
     0.0074312320677530   -4.1199385152832830  -11.7317118848459128
 Sr  Co  O  
   6   6  13
Selective dynamics
Direct
  0.0085526749353662  0.0165647025042215  0.0017112202448821   T   T   T
  0.8176525708957334  0.8445734743696670  0.6725042594280305   T   T   T
  0.6755237033401865  0.6254369097745446  0.3312766650563756   T   T   T
  0.5067524333411770  0.5023393752351710  0.0045071401804614   T   T   T
  0.3247968654734431  0.3535661606490858  0.6683258143638510   T   T   T
  0.1926884012731951  0.1749901100869991  0.3251409986983739   T   T   T
  0.9120801845741594  0.4403872004276685  0.8421209659936747   T   T   T
  0.7672590870411899  0.2770578463608225  0.5208735269464443   T   T   T
  0.5770981365329664  0.0755589620989152  0.1428985149316439   T   T   T
  0.4222710387008451  0.9195776722494994  0.8278012963367741   T   T   T
  0.2019294432690294  0.7363808997266736  0.4957012250146920   T   T   T
  0.1124860296405904  0.5896292809355675  0.1703565837169979   T   T   T
 -0.0047379943779038  0.5484328037879300  0.0036252768593976   T   T   T
  0.6811567632902762  0.1769935501478590  0.8461871576318162   T   T   T
  0.7856006349391578  0.3700594349554764  0.6836451374785238   T   T   T
 -0.1398985773018334 -0.0463597500849459  0.4996065313081751   T   T   T
  0.4321441356803266  0.8298992090390935  0.1817295297129676   T   T   T
  0.5440750002009180 -0.0652753998854842 -0.0160633134924399   T   T   T
  0.1648462738630316  0.6752602575826027  0.8240336945696930   T   T   T
  0.3388799241202928  0.8810406897289066  0.6652813718006352   T   T   T
  0.5006230624986933  0.4693124225279591  0.4744645869649577   T   T   T
  0.0206302361341927  0.4275216716920277  0.4862138200656006   T   T   T
  0.1289586323866682  0.7401848853886213  0.3301265529997262   T   T   T
  0.3492181520590972  0.3204023360753362  0.1775430895383241   T   T   T
  0.8460798740290626  0.2831319634718342  0.1737216603238426   T   T   T
