Sr Co O 
 1.0000000000000000
    -4.0808889450684385   -0.1255503071911346   -4.0012822337477676
    -0.0287120621648289   -7.5148051639671865   -0.2177004936131486
    -4.0790888170063351    3.9558596341769849    8.1278558262175871
 Sr  Co  O  
   6   6  12
Selective dynamics
Direct
  0.0761711746679691  0.0052274780327911  0.0311784247526781   T   T   T
  0.6555729382539516  0.1609569265171708  0.3401411872176268   T   T   T
  0.3020677889241913  0.3308768534116643  0.6388459319306287   T   T   T
  0.0379007792080502  0.5269241584289707  0.0164685655852448   T   T   T
  0.6401488803911877  0.6549836538779352  0.3427692927009933   T   T   T
  0.3017454486518538  0.8198370426056749  0.6489047185675172   T   T   T
  0.5116343966523713  0.7066903683212642 -0.0058043398705567   T   T   T
  0.1442632456477671  0.9001871720935674  0.3036982483953957   T   T   T
  0.8135201022854801  0.0662041310489116  0.6989426189097959   T   T   T
  0.4607251086275809  0.2727828731518834 -0.0324349624130703   T   T   T
  0.1710364840733812  0.4335331670633570  0.3620828361706961   T   T   T
  0.8371772064955885  0.6365592785031380  0.6792546661683188   T   T   T
  0.8291803558162945  0.8371553569657122  0.1119183999419594   T   T   T
  0.3765593772467242  0.8129602114298838  0.1716251239615540   T   T   T
  0.5540176959062884  0.0206282080947784  0.5239168472589966   T   T   T
  0.1273604936953484  0.1680017884451175  0.3339504551332902   T   T   T
  0.1494193549105018  0.1630056262734450  0.7906565923830619   T   T   T
  0.6087146312233017  0.4214920631416330 -0.0997874383070988   T   T   T
  0.4250359452794497  0.2996230499034008  0.1533492601519954   T   T   T
  0.5060739696488319  0.5135679157049705  0.5356931308650611   T   T   T
  0.0901152978372532  0.6619466938769525  0.3228540674946406   T   T   T
 -0.0396168939836680  0.5073177798222374  0.5068192055168547   T   T   T
  0.1832231231005861  0.6783274693229010  0.8357232768806625   T   T   T
  0.7379530049449587  0.9012108281076791  0.7892338955556155   T   T   T
