Sr Co O 
 1.0000000000000000
    -3.9795502507006493   -0.0000000000000000   -3.9795502507006386
     0.2316119391497527   -7.3331240587162201   -0.2316119391497525
    -4.2077323737772954    4.0481893951584018    8.1872826244779180
 Sr  Co  O  
   6   6  13
Selective dynamics
Direct
 -0.0171589800825385  0.0188157443852614 -0.0343179601650773   T   T   T
  0.6573113927756680  0.1325298573359240  0.3146227855513362   T   T   T
  0.3333333333333350  0.3333333333333344  0.6666666666666691   T   T   T
  0.0093552738909994  0.5341368093307430  0.0187105477819987   T   T   T
  0.6838256467492032  0.6478509222814042  0.3676512934984109   T   T   T
  0.3333333333333332  0.8333333333333338  0.6666666666666677   T   T   T
  0.4835103843826585  0.7215285664887252 -0.0329792312346824   T   T   T
  0.1831562822840083  0.9451381001779384  0.3663125645680170   T   T   T
  0.8383336597089104  0.0973140025418599  0.6766673194178171   T   T   T
  0.5044630261598170  0.2825129063028125  0.0089260523196358   T   T   T
  0.1622036405068495  0.3841537603638546  0.3244072810136994   T   T   T
  0.8283330069577578  0.5693526641248071  0.6566660139155192   T   T   T
  0.6672359757715818  0.6655066182953868  0.8319596469988438   T   T   T
  0.5019429954394079  0.0011600483712803  0.5013736863344922   T   T   T
  0.0899317504462655 -0.0702229826174100  0.1798635008925320   T   T   T
 -0.0005693091049140  0.0011600483712793  0.5013736863344920   T   T   T
  0.1825653141804975  0.2172527631018588  0.8469877785296470   T   T   T
  0.6644224643491493  0.2172527631018588  0.8469877785296475   T   T   T
  0.8333333333333327  0.3333333333333331  0.1666666666666675   T   T   T
  0.5767349162204003  0.7368896492840745  0.1534698324408017   T   T   T
  0.3333333333333336  0.3333333333333337  0.1666666666666674   T   T   T
  0.4841013524861706  0.4494139035648083  0.4863455548036875   T   T   T
  0.0022442023175164  0.4494139035648079  0.4863455548036869   T   T   T
  0.1647236712272599  0.6655066182953867  0.8319596469988434   T   T   T
  0.8333333333333338  0.8333333333333339  0.6666666666666682   T   T   T
