Sr Co O 
 1.0000000000000000
     3.7807444229541658    0.0000000000000000    0.0000000000000000
     0.0000000000000000    3.8144157710376572    0.0000000000000000
     0.0000000000000000    0.0000000000000000   24.0845567914753538
 Sr  Co  O  
   6   6  12
Selective dynamics
Direct
  0.0000000000000000  0.0000000000000000 -0.0049131740918048   T   T   T
  0.0000000000000000  0.0000000000000000  0.1678579012392551   T   T   T
  0.0000000000000000  0.0000000000000000  0.3321547223758827   T   T   T
  0.0000000000000000  0.0000000000000000  0.5043728270220572   T   T   T
  0.0000000000000000  0.0000000000000000  0.6598552104924102   T   T   T
  0.0000000000000000  0.0000000000000000  0.8403357111362103   T   T   T
  0.4999999999999998  0.4999999999999997  0.1014867504345794   T   T   T
  0.4999999999999998  0.4999999999999997  0.2453613329146600   T   T   T
  0.4999999999999998  0.4999999999999997  0.4107833662087788   T   T   T
  0.4999999999999998  0.4999999999999997  0.5811634155097749   T   T   T
  0.4999999999999998  0.4999999999999997  0.7512477144817702   T   T   T
  0.4999999999999998  0.4999999999999997  0.9149304640779382   T   T   T
  0.4999999999999998  0.4999999999999997  0.0269031571907682   T   T   T
  0.4999999999999998  0.0000000000000000  0.2343168087331611   T   T   T
  0.4999999999999998  0.4999999999999997  0.3274626974941560   T   T   T
  0.0000000000000000  0.4999999999999997  0.4061375141854796   T   T   T
  0.4999999999999998  0.4999999999999997  0.4864610979728171   T   T   T
  0.0000000000000000  0.4999999999999997  0.5824351680455493   T   T   T
  0.4999999999999998  0.0000000000000000  0.5806732380263142   T   T   T
  0.4999999999999998  0.4999999999999997  0.6763284505228332   T   T   T
  0.4999999999999998  0.0000000000000000  0.7526556763119514   T   T   T
  0.4999999999999998  0.4999999999999997  0.8276880865746791   T   T   T
  0.0000000000000000  0.4999999999999997  0.9217857327349755   T   T   T
  0.4999999999999998  0.0000000000000000  0.9225161724048319   T   T   T
