Sr Co O 
 1.0000000000000000
     3.8373591972217844   -3.9898992153887241   -0.0038723625524445
    -3.7880610905894239    0.0415237780360263   -7.9346741052244703
     7.5635368747524652    7.8689363397963401   -0.0353716817919645
 Sr  Co  O  
   8   8  20
Selective dynamics
Direct
  0.0128105577912973  0.0351814227248590  0.0115961475370217   T   T   T
  0.7302586995362788  0.4745811184822865  0.8687988875690317   T   T   T
  0.5197413004637239  0.0254188815177139  0.7562011124309671   T   T   T
  0.2371894422087027  0.4648185772751415  0.6134038524629781   T   T   T
  0.0060737652104311  0.0050004201179778  0.4910230844870268   T   T   T
  0.7438161718937487  0.4855635278620518  0.3632508916654074   T   T   T
  0.5061838281062528  0.0144364721379488  0.2617491083345918   T   T   T
  0.2439262347895687  0.4949995798820220  0.1339769155129729   T   T   T
  0.8719807103906384  0.7516597317878002  0.1902847407088521   T   T   T
  0.6282374841148235  0.2574936893281485  0.0630448274542429   T   T   T
  0.3288329198393842  0.7550316278469317  0.9507988265567210   T   T   T
  0.1250000000000009  0.2500000000000001  0.8124999999999999   T   T   T
  0.9211670801606167  0.7449683721530675  0.6742011734432778   T   T   T
  0.6217625158851767  0.2425063106718517  0.5619551725457558   T   T   T
  0.3780192896093629  0.7483402682121990  0.4347152592911469   T   T   T
  0.1250000000000001  0.2500000000000001  0.3124999999999999   T   T   T
 -0.0428633239849424 -0.0210256328444978  0.2300178166136778   T   T   T
  0.0410550686149278  0.7516427706599650  0.0218869384295555   T   T   T
  0.7261502642706512  0.5253979349893548  0.1158063760620729   T   T   T
  0.3750643348830495  0.2406570863896880  0.9337756477544528   T   T   T
  0.8946107299799733  0.2678302434633407  0.9408720699819868   T   T   T
  0.5196931160994936 -0.0309466842648889 -0.0111508898663346   T   T   T
  0.3104073968863820  0.5450420946900145  0.8713207215242805   T   T   T
  0.8749356651169516  0.2593429136103118  0.6912243522455461   T   T   T
  0.3553892700200274  0.2321697565366592  0.6841279300180116   T   T   T
 -0.0604073968863817 -0.0450420946900145  0.7536792784757181   T   T   T
  0.2089449313850724  0.7483572293400355  0.6031130615704442   T   T   T
  0.7303068839005088  0.5309466842648894  0.6361508898663342   T   T   T
  0.3670297670309942  0.2298419485740032  0.4342086466945971   T   T   T
  0.8743674281904882  0.2481382457489927  0.4354736649904017   T   T   T
  0.5238497357293496 -0.0253979349893549  0.5091936239379261   T   T   T
  0.1249999999999998  0.7499999999999997  0.3124999999999997   T   T   T
  0.6250000000000007  0.7499999999999996  0.3124999999999995   T   T   T
  0.2928633239849431  0.5210256328444979  0.3949821833863219   T   T   T
  0.8829702329690070  0.2701580514259971  0.1907913533054019   T   T   T
  0.3756325718095139  0.2518617542510074  0.1895263350095977   T   T   T
