Sr Co O 
 1.0000000000000000
     3.8317024550403453   -0.0115371372743901    3.8514831088680692
     3.7077649097419449   -4.2138932653949857   -3.7095980207755246
     3.7022322064275479   12.6899253267860512   -3.7657491127213278
 Sr  Co  O  
   8   8  20
Selective dynamics
Direct
  0.0171400371035419  0.0115098051884822 -0.0027649361194192   T   T   T
  0.5115674186366853  0.6281942249710142  0.8637846341209007   T   T   T
  0.0038449225999095  0.2702471763581088  0.7428642123124485   T   T   T
  0.4920044374283944  0.8910229316310486  0.6140800427799911   T   T   T
 -0.0070202679041636  0.5021414090640043  0.5074890497174327   T   T   T
  0.4881208523099418  0.1131406908889986  0.3907298630319014   T   T   T
 -0.0070270045591833  0.7327007762353897  0.2674206267178304   T   T   T
  0.4877291923149454  0.3946679235157929  0.1304884613838445   T   T   T
  0.5809148122494541  0.8723349452269230  0.1137740013558909   T   T   T
 -0.0041181864011799  0.4905812611113465 -0.0061967245233158   T   T   T
  0.5076776007477276  0.1315163175153082  0.8785005481272847   T   T   T
 -0.0219006334357965  0.7678046928980642  0.7389015647498328   T   T   T
  0.4960774191630336  0.3927388449821332  0.6224518258649069   T   T   T
 -0.0113144429499581  0.0017698745652196  0.5030160875451433   T   T   T
  0.4860552195990676  0.6038349154609987  0.3836417872178209   T   T   T
 -0.0203233935318221  0.2398144861056151  0.2689145995153607   T   T   T
  0.4986446768181849  0.0114015607951565  0.0142099472003413   T   T   T
  0.6831145862244196  0.6025478512106949  0.0268903739569436   T   T   T
  0.0449491591215308  0.6299848380245618  0.9000341408073420   T   T   T
  0.2279268823639723  0.2766188548303155  0.9283537177733896   T   T   T
  0.5156252857344199  0.2357611052459252  0.7695831237743620   T   T   T
  0.7756450335523178  0.9596077626885166  0.8343199159980216   T   T   T
  0.7512525316426993  0.5492610768310775  0.6954294177553371   T   T   T
 -0.0119921930684694  0.8937511597159261  0.6317902654542790   T   T   T
  0.2662438468053470  0.6272459573420014  0.7060564814258810   T   T   T
  0.2391635485849643  0.2136981965821682  0.5768907091171536   T   T   T
  0.4956725897538363  0.4995032562450676  0.5022567260475331   T   T   T
  0.7364735700875211  0.1795529608709845  0.5597636556929930   T   T   T
  0.7342105828928869  0.7951041044387764  0.4282808339296958   T   T   T
 -0.0023149186117715  0.1233612755806003  0.3788127754244573   T   T   T
  0.2381124186742261  0.8118369025380987  0.4410633001553417   T   T   T
  0.2406966130944829  0.4195198227645949  0.3026725990966764   T   T   T
  0.4488599119249716  0.8031442195555220  0.2187577127484567   T   T   T
  0.7109366900141355  0.4171540617211579  0.2935691976756910   T   T   T
  0.8950693150123736  0.0008271701371288  0.1669794609021010   T   T   T
  0.0122819001291487  0.4060970912283232  0.1071898663329614   T   T   T
