Sr Co O 
 1.0000000000000000
     3.9441281977422684   -0.0000000000000000    3.9265368675849626
     0.0000000000000000   -7.7440092499227271   -0.0000000000000000
     7.7916177698321647   -0.0000000000000000   -7.7569407207958330
 Sr  Co  O  
   8   8  20
Selective dynamics
Direct
  0.0139579584309013  0.0067427595822003 -0.0056641299426841   T   T   T
  0.4709706408472278  0.0104178108333416  0.7462298361189675   T   T   T
 -0.0180108610265013  0.0095969995046028  0.5055134398216123   T   T   T
  0.5436312071624303  0.0105594942228403  0.2563879812522302   T   T   T
  0.0139579584309013  0.4932572404177997 -0.0056641299426841   T   T   T
  0.4709706408472278  0.4895821891666589  0.7462298361189675   T   T   T
 -0.0180108610265013  0.4904030004953974  0.5055134398216123   T   T   T
  0.5436312071624303  0.4894405057771599  0.2563879812522302   T   T   T
  0.5025526446680157  0.7500000000000008  0.0035998075556889   T   T   T
 -0.0055669043466892  0.7500000000000008  0.7383200043151619   T   T   T
  0.5006065131153372  0.7500000000000008  0.5098705380312314   T   T   T
 -0.0191646957311866  0.7500000000000008  0.2418685300545219   T   T   T
  0.5279728528714420  0.2500000000000001 -0.0080559452501770   T   T   T
 -0.0150072647392149  0.2500000000000001  0.7499998376114757   T   T   T
  0.4892227077806171  0.2500000000000001  0.4984129288784281   T   T   T
  0.0182519267334309  0.2500000000000001  0.2565584777903702   T   T   T
  0.2694772805637662  0.7500000000000008  0.8864192712980287   T   T   T
  0.4806007989997483 -0.0094961582436727  0.0233568405971403   T   T   T
  0.6872038875305607  0.7500000000000008  0.6569229852504548   T   T   T
 -0.0253918280825113 -0.0192806955200272  0.7622064602559586   T   T   T
  0.1924409755474577  0.7500000000000008  0.5952451497548488   T   T   T
  0.4749726184587205 -0.0178737306620291  0.4901735153289795   T   T   T
  0.7460925113056671  0.7500000000000008  0.3694214495051167   T   T   T
  0.7888017121013324  0.7500000000000008  0.0915134403065280   T   T   T
  0.0811487267140684 -0.0280240629047605  0.2406524902755155   T   T   T
  0.2446757292561079  0.2500000000000001  0.8888993922920834   T   T   T
  0.4806007989997483  0.5094961582436730  0.0233568405971403   T   T   T
  0.7523010405360157  0.2500000000000001  0.8720689341007654   T   T   T
  0.7123443861326082  0.2500000000000001  0.6254403315142636   T   T   T
 -0.0253918280825113  0.5192806955200278  0.7622064602559586   T   T   T
  0.2140721762214199  0.2500000000000001  0.6237152365236470   T   T   T
  0.2811157910586529  0.2500000000000001  0.3568240584521357   T   T   T
  0.4749726184587205  0.5178737306620298  0.4901735153289795   T   T   T
  0.7687426807507463  0.2500000000000001  0.3780490933084240   T   T   T
  0.8001052474294065  0.2500000000000001  0.1271936204603624   T   T   T
  0.0811487267140684  0.5280240629047606  0.2406524902755155   T   T   T
