Sr Co O 
 1.0000000000000000
    -3.7842002970883253    0.0000000000000000    0.0000000000000000
     0.0000000000000000   -7.9570035502928418    0.1018492967381863
     0.0000000000000000    3.7733359216940232   15.8864398627210814
 Sr  Co  O  
   8   8  20
Selective dynamics
Direct
 -0.0000000000000000  0.0252285955598420  0.0020643229090337   T   T   T
 -0.0000000000000000  0.1231481390646856  0.2446283897049217   T   T   T
 -0.0000000000000000  0.2535825466233974  0.4845536299651309   T   T   T
 -0.0000000000000000  0.4176672213029729  0.7693446052545131   T   T   T
 -0.0000000000000000  0.4938360125944393  0.0038787394587791   T   T   T
 -0.0000000000000000  0.6093459632680693  0.2459142870309074   T   T   T
 -0.0000000000000000  0.7014083451013422  0.4881925834572401   T   T   T
 -0.0000000000000000  0.8821135720349784  0.7722717209406010   T   T   T
  0.5000000000000007  0.8150121561872382  0.1286368061215942   T   T   T
  0.5000000000000007  0.9222861908859752  0.3715743718639453   T   T   T
  0.5000000000000007  0.0339696563939961  0.6439702896718669   T   T   T
  0.5000000000000007  0.2082380781463679  0.8787354108831704   T   T   T
  0.5000000000000007  0.3120971522548475  0.1239404759601492   T   T   T
  0.5000000000000007  0.4218183649950681  0.3675174802976351   T   T   T
  0.5000000000000007  0.5589892813596520  0.6229000189936112   T   T   T
  0.5000000000000007  0.7027913984278591  0.8792121706555712   T   T   T
 -0.0000000000000000  0.8014087806294915  0.0977854486356558   T   T   T
  0.5000000000000007  0.0369678474188578  0.1172599184979051   T   T   T
  0.5000000000000007  0.8755990997670119  0.2508181872129867   T   T   T
 -0.0000000000000000  0.9425529100212845  0.4145455668198172   T   T   T
  0.5000000000000007  0.1606910418248144  0.3781980285007371   T   T   T
  0.5000000000000007  0.1884283793735737  0.7379985346472293   T   T   T
 -0.0000000000000000  0.1988841861835738  0.8715176224412113   T   T   T
  0.5000000000000007  0.4731188740774342  0.8879388598131149   T   T   T
  0.5000000000000007  0.2578810072666101  0.0038499643329419   T   T   T
 -0.0000000000000000  0.3134328574062333  0.1252763281173205   T   T   T
  0.5000000000000007  0.5839696772098255  0.1205946355182199   T   T   T
  0.5000000000000007  0.3634780802283769  0.2440822842974255   T   T   T
 -0.0000000000000000  0.4222065275314832  0.3696899320125414   T   T   T
  0.5000000000000007  0.6886471302545265  0.3732530392924086   T   T   T
  0.5000000000000007  0.4714958589880513  0.5038710460796855   T   T   T
 -0.0000000000000000  0.4916487478183300  0.6241704897201131   T   T   T
  0.5000000000000007  0.8199536636720428  0.5900526787018839   T   T   T
  0.5000000000000007  0.6479394023775176  0.7398366232665965   T   T   T
 -0.0000000000000000  0.7126345343145793  0.8928808530935213   T   T   T
  0.5000000000000007  0.9425288554145810  0.8790444786352933   T   T   T
