Sr Co O 
 1.0000000000000000
    -3.7220548197380423    0.0000000000000000    0.0000000000000000
     0.0000000000000000    4.0297008754963537    7.9278629620735472
     0.0000000000000000   12.0707108543272046   -7.9186409609276627
 Sr  Co  O  
   8   8  20
Selective dynamics
Direct
 -0.0000000000000000 -0.0037702660194075 -0.0061180055903957   T   T   T
 -0.0000000000000000  0.3473132512230518  0.8915536140212097   T   T   T
 -0.0000000000000000  0.7671697294130247  0.7364954835734090   T   T   T
 -0.0000000000000000  0.1083560126580363  0.6118489201761815   T   T   T
 -0.0000000000000000  0.5055567700314653  0.4912309247376542   T   T   T
 -0.0000000000000000  0.8765184183063270  0.3754207775181138   T   T   T
 -0.0000000000000000  0.2596351525881777  0.2592720626556010   T   T   T
 -0.0000000000000000  0.6236840282889222  0.1375342088832600   T   T   T
  0.4999999999999999  0.3163018025101772  0.0635546189368724   T   T   T
  0.4999999999999999  0.6940221652943995  0.9496807476637897   T   T   T
  0.4999999999999999  0.0470310705058661  0.8124751870567901   T   T   T
  0.4999999999999999  0.4477113393307387  0.6816941891825833   T   T   T
  0.4999999999999999  0.8131311264063984  0.5572374080433583   T   T   T
  0.4999999999999999  0.1877942965795334  0.4370405331257629   T   T   T
  0.4999999999999999  0.5636664808867250  0.3144551947928366   T   T   T
  0.4999999999999999  0.9344724968698039  0.1896510923238805   T   T   T
 -0.0000000000000000  0.2800864905234173  0.0683434686780019   T   T   T
  0.4999999999999999  0.1681391668746327  0.9393445042734245   T   T   T
  0.4999999999999999  0.5000949349396409 -0.0228969611374822   T   T   T
  0.4999999999999999  0.8295032694360549  0.8643005938692346   T   T   T
 -0.0000000000000000  0.0825809989791541  0.8049100480635754   T   T   T
  0.4999999999999999  0.9565219993430688  0.6861546915086191   T   T   T
 -0.0000000000000000  0.4523096106568975  0.7379751980980244   T   T   T
  0.4999999999999999  0.3022878613453720  0.5846884744750239   T   T   T
  0.4999999999999999  0.6322442492844335  0.6355040981439445   T   T   T
 -0.0000000000000000  0.8134631399884016  0.5613143838312604   T   T   T
  0.4999999999999999  0.6851748554123752  0.4375854463796087   T   T   T
  0.4999999999999999 -0.0016261428513358  0.4899265460637818   T   T   T
 -0.0000000000000000  0.1914508540189855  0.4394155202664983   T   T   T
  0.4999999999999999  0.0702431677236729  0.2965398884921545   T   T   T
  0.4999999999999999  0.3764709535829449  0.3819908185166284   T   T   T
 -0.0000000000000000  0.5630056125757885  0.3098733195945546   T   T   T
  0.4999999999999999  0.4295951629812982  0.1821038009623836   T   T   T
  0.4999999999999999  0.7527426275826992  0.2452826778239289   T   T   T
 -0.0000000000000000  0.9798113135631130  0.1679192149483487   T   T   T
  0.4999999999999999  0.8223062342205338  0.0616974629622416   T   T   T
