Sr Co O 
 1.0000000000000000
    -3.6672513378679583    0.0000000000000000    0.0000000000000000
     0.0000000000000000   -7.8423205741740736   -0.0037748192109068
     0.0000000000000000    3.9290159432231175   16.1383196708935372
 Sr  Co  O  
   8   8  20
Selective dynamics
Direct
 -0.0000000000000000 -0.0107007122044023 -0.0076119654902573   T   T   T
 -0.0000000000000000  0.1295690691042935  0.2578524504421312   T   T   T
  0.0000000000000000  0.2454309308957057  0.4921475495578689   T   T   T
 -0.0000000000000000  0.3857007122044013  0.7576119654902568   T   T   T
 -0.0000000000000000  0.5140787188212858  0.0017882940691560   T   T   T
  0.0000000000000000  0.6200645318913605  0.2404300132967555   T   T   T
 -0.0000000000000000  0.7549354681086379  0.5095699867032442   T   T   T
  0.0000000000000000  0.8609212811787120  0.7482117059308444   T   T   T
  0.4999999999999998  0.8112168320425838  0.1258830335097795   T   T   T
  0.4999999999999998  0.9373822498909948  0.3753111737555331   T   T   T
  0.4999999999999998  0.0608789613881992  0.6255099562101102   T   T   T
  0.4999999999999998  0.1874999999999994  0.8750000000000002   T   T   T
  0.4999999999999998  0.3141210386118002  0.1244900437898904   T   T   T
  0.4999999999999998  0.4376177501090034  0.3746888262444671   T   T   T
  0.4999999999999998  0.5637831679574143  0.6241169664902199   T   T   T
  0.4999999999999998  0.6874999999999988  0.8749999999999996   T   T   T
  0.4999999999999998  0.7702510024770871  0.0050833691858413   T   T   T
  0.0000000000000000  0.8693686562367900  0.1275613476625907   T   T   T
  0.4999999999999998  0.8703223401941765  0.2488563860874475   T   T   T
 -0.0000000000000000  0.8797859354457779  0.3748910896223020   T   T   T
  0.4999999999999998  0.1874999999999995  0.3749999999999998   T   T   T
  0.4999999999999998 -0.0005617584467774  0.5003020437160722   T   T   T
  0.0000000000000000  0.1197877505978581  0.6284442512080516   T   T   T
  0.4999999999999998  0.1450460204745528  0.7607405439729130   T   T   T
  0.4999999999999998  0.4241323790163740  0.8828139757241404   T   T   T
  0.4999999999999998  0.2299539795254461 -0.0107405439729133   T   T   T
 -0.0000000000000000  0.2552122494021410  0.1215557487919482   T   T   T
  0.4999999999999998  0.5583330311228345  0.1193200762069963   T   T   T
  0.4999999999999998  0.3755617584467764  0.2496979562839279   T   T   T
  0.0000000000000000  0.4952140645542212  0.3751089103776981   T   T   T
  0.4999999999999998  0.5046776598058224  0.5011436139125529   T   T   T
 -0.0000000000000000  0.5056313437632086  0.6224386523374092   T   T   T
  0.4999999999999998  0.8166669688771639  0.6306799237930041   T   T   T
  0.4999999999999998  0.6047489975229107  0.7449166308141580   T   T   T
 -0.0000000000000000  0.6874999999999988  0.8749999999999996   T   T   T
  0.4999999999999998  0.9508676209836250  0.8671860242758597   T   T   T
