Sr Co O 
 1.0000000000000000
    -3.7488916077574310    0.0000000000000000    0.0000000000000000
     0.0000000000000000    7.8868523004518716    7.8819655559199129
     0.0000000000000000    7.8620694462691780   -7.8574248444397075
 Sr  Co  O  
   8   8  21
Selective dynamics
Direct
 -0.0000000000000000 -0.0119176817221621 -0.0057031935079909   T   T   T
 -0.0000000000000000  0.2375957260355180  0.7574603596124376   T   T   T
 -0.0000000000000000  0.5124042739644818  0.4925396403875612   T   T   T
 -0.0000000000000000  0.7619176817221613  0.2557031935079896   T   T   T
 -0.0000000000000000  0.4858457858515129 -0.0075950973947671   T   T   T
  0.0000000000000000  0.7484765596617601  0.7417250357014645   T   T   T
  0.0000000000000000  0.0015234403382401  0.5082749642985347   T   T   T
  0.0000000000000000  0.2641542141484867  0.2575950973947662   T   T   T
  0.4999999999999996  0.2513541388209682 -0.0028368312327763   T   T   T
  0.4999999999999996  0.5037472687819423  0.7547326985337350   T   T   T
  0.4999999999999996  0.7533708009869929  0.4984929625872750   T   T   T
  0.4999999999999996 -0.0004718362234686  0.2541123401819691   T   T   T
  0.4999999999999996  0.7504718362234679 -0.0041123401819695   T   T   T
  0.4999999999999996 -0.0033708009869926  0.7515070374127242   T   T   T
  0.4999999999999996  0.2462527312180565  0.4952673014662627   T   T   T
  0.4999999999999996  0.4986458611790309  0.2528368312327751   T   T   T
  0.0000000000000000  0.2316603251515051  0.0238083995523569   T   T   T
  0.4999999999999996  0.1147812480516637  0.8947432196661249   T   T   T
  0.4999999999999996  0.3653816768521295  0.8583814016012468   T   T   T
  0.0000000000000000  0.4749579532473737  0.7289743733684022   T   T   T
  0.4999999999999996  0.6118837249736988  0.6263767283057499   T   T   T
  0.0000000000000000  0.7507737794766709  0.4984945518754110   T   T   T
  0.4999999999999996  0.6352187519483367  0.3552567803338733   T   T   T
  0.4999999999999996  0.8894416941764857  0.3770154562690505   T   T   T
  0.0000000000000000  0.0294576325915349  0.2207639444119187   T   T   T
  0.4999999999999996  0.8749999999999994  0.1249999999999998   T   T   T
  0.0000000000000000  0.7205423674084642  0.0292360555880806   T   T   T
  0.4999999999999996  0.6110862111566207  0.8937989595409417   T   T   T
  0.4999999999999996  0.8605583058235137  0.8729845437309484   T   T   T
  0.0000000000000000 -0.0007737794766727  0.7515054481245868   T   T   T
  0.4999999999999996  0.8749999999999989  0.6249999999999984   T   T   T
  0.4999999999999996  0.1381162750262996  0.6236232716942474   T   T   T
  0.0000000000000000  0.2750420467526248  0.5210256266315950   T   T   T
  0.4999999999999996  0.1389137888433783  0.3562010404590567   T   T   T
  0.4999999999999996  0.3846183231478694  0.3916185983987516   T   T   T
 -0.0000000000000000  0.5183396748484941  0.2261916004476419   T   T   T
  0.4999999999999996  0.3749999999999996  0.1249999999999995   T   T   T
