Sr Co O 
 1.0000000000000000
     3.9325356784744772    0.0000000000000000    0.0000000000000000
     0.0000000000000000    3.6930142720389805    0.0000000000000000
     0.0000000000000000    0.0000000000000000   25.0758158965662581
 Sr  Co  O  
   6   6  12
Selective dynamics
Direct
  0.0000000000000000  0.0000000000000000 -0.0124866266740840   T   T   T
  0.0000000000000000  0.0000000000000000  0.1678128838914065   T   T   T
  0.0000000000000000  0.0000000000000000  0.3222423561170808   T   T   T
  0.0000000000000000  0.0000000000000000  0.5185094933839681   T   T   T
  0.0000000000000000  0.0000000000000000  0.6765713484944785   T   T   T
  0.0000000000000000  0.0000000000000000  0.8272273864444291   T   T   T
  0.4999999999999999  0.5000000000000001  0.0845346011871868   T   T   T
  0.4999999999999999  0.5000000000000001  0.2421584870398988   T   T   T
  0.4999999999999999  0.5000000000000001  0.4121376356310502   T   T   T
  0.4999999999999999  0.5000000000000001  0.5980858307958369   T   T   T
  0.4999999999999999  0.5000000000000001  0.7529323457181080   T   T   T
  0.4999999999999999  0.5000000000000001  0.9108252738225240   T   T   T
  0.4999999999999999  0.5000000000000001  0.1613363488336775   T   T   T
  0.0000000000000000  0.5000000000000001  0.2533652723361058   T   T   T
  0.4999999999999999  0.0000000000000000  0.3773687911179572   T   T   T
  0.4999999999999999  0.5000000000000001  0.4831369071476881   T   T   T
  0.0000000000000000  0.5000000000000001  0.5881484171475081   T   T   T
  0.4999999999999999  0.0000000000000000  0.5833254539976873   T   T   T
  0.4999999999999999  0.5000000000000001  0.6751114634934413   T   T   T
  0.0000000000000000  0.5000000000000001  0.7548602719602463   T   T   T
  0.4999999999999999  0.0000000000000000  0.7567352042202049   T   T   T
  0.4999999999999999  0.5000000000000001  0.8367821103779570   T   T   T
  0.0000000000000000  0.5000000000000001  0.9250085568130242   T   T   T
  0.4999999999999999  0.0000000000000000  0.9376035566246401   T   T   T
