Sr Co O 
 1.0000000000000000
    -3.7536867040823290    0.0000000000000000    0.0000000000000000
     0.0000000000000000    4.0070553463680376    7.9499353987651418
     0.0000000000000000   11.9983531568967781   -7.9385770402370488
 Sr  Co  O  
   8   8  20
Selective dynamics
Direct
 -0.0000000000000000 -0.0068280840386219 -0.0034225620040242   T   T   T
  0.0000000000000000  0.3651323688412060  0.8879905821448875   T   T   T
  0.0000000000000000  0.7681608747716374  0.7696588805556838   T   T   T
 -0.0000000000000000  0.1249999999999998  0.6250000000000001   T   T   T
  0.0000000000000000  0.4818391252283628  0.4803411194443175   T   T   T
 -0.0000000000000000  0.8848676311587933  0.3620094178551125   T   T   T
 -0.0000000000000000  0.2568280840386220  0.2534225620040245   T   T   T
 -0.0000000000000000  0.6249999999999999  0.1250000000000003   T   T   T
  0.4999999999999999  0.3211523005118907  0.0617738727848916   T   T   T
  0.4999999999999999  0.6883481338171357  0.9394486707038108   T   T   T
  0.4999999999999999  0.0622939194758748  0.8170978006600602   T   T   T
  0.4999999999999999  0.4216470999156829  0.6953275932722196   T   T   T
  0.4999999999999999  0.8283529000843169  0.5546724067277811   T   T   T
  0.4999999999999999  0.1877060805241264  0.4329021993399418   T   T   T
  0.4999999999999999  0.5616518661828639  0.3105513292961896   T   T   T
  0.4999999999999999  0.9288476994881089  0.1882261272151086   T   T   T
 -0.0000000000000000  0.2756373849976668  0.0739571985530359   T   T   T
  0.4999999999999999  0.1875612851829681  0.9495222134508435   T   T   T
  0.4999999999999999  0.4979380191386957 -0.0039492001245573   T   T   T
  0.0000000000000000  0.6807589105499987  0.9356519191194023   T   T   T
  0.4999999999999999  0.5693480937137703  0.7880367642488676   T   T   T
  0.4999999999999999  0.8773950419474335  0.8791735223749382   T   T   T
  0.0000000000000000  0.0625123403930661  0.8073407020515251   T   T   T
  0.4999999999999999  0.8953059771447232  0.6758674106509656   T   T   T
  0.4999999999999999  0.2461082455431048  0.7466533805117870   T   T   T
  0.4999999999999999  0.3546940228552777  0.5741325893490362   T   T   T
  0.4999999999999999  0.6806519062862300  0.4619632357511335   T   T   T
  0.4999999999999999  0.0038917544568968  0.5033466194882148   T   T   T
 -0.0000000000000000  0.1874876596069341  0.4426592979484756   T   T   T
  0.4999999999999999  0.0624387148170330  0.3004777865491581   T   T   T
  0.4999999999999999  0.3726049580525663  0.3708264776250625   T   T   T
 -0.0000000000000000  0.5692410894500004  0.3143480808805980   T   T   T
  0.4999999999999999  0.4247648884034967  0.1806402581859573   T   T   T
  0.4999999999999999  0.7520619808613038  0.2539492001245580   T   T   T
  0.0000000000000000  0.9743626150023332  0.1760428014469643   T   T   T
  0.4999999999999999  0.8252351115965022  0.0693597418140431   T   T   T
