Sr Co O 
 1.0000000000000000
     3.6802801999125379    0.0000000000000000    0.0000000000000000
     0.0000000000000000   -7.9250753697191696    7.9250753697191678
     0.0000000000000000   -3.9841663116717432  -11.9092416813909150
 Sr  Co  O  
   8   8  20
Selective dynamics
Direct
  0.0000000000000000 -0.0000000000000000 -0.0000000000000000   T   T   T
  0.0000000000000000  0.1374402814585781  0.7598592630522431   T   T   T
 -0.0000000000000000  0.2549118232849263  0.5098236465698527   T   T   T
 -0.0000000000000000  0.3775810184063347  0.2401407369477565   T   T   T
  0.0000000000000000  0.5000000000000002  0.0000000000000002   T   T   T
  0.0000000000000000  0.6224189815936654  0.7598592630522437   T   T   T
  0.0000000000000000  0.7450881767150734  0.4901763534301471   T   T   T
 -0.0000000000000000  0.8625597185414215  0.2401407369477566   T   T   T
  0.4999999999999998  0.8711802306351771  0.7423604612703525   T   T   T
  0.4999999999999998 -0.0000000000000002  0.4999999999999997   T   T   T
  0.4999999999999998  0.1288197693648239  0.2576395387296483   T   T   T
  0.4999999999999998  0.2504051230249144  0.0000000000000000   T   T   T
  0.4999999999999998  0.3764375961653309  0.7528751923306619   T   T   T
  0.4999999999999998  0.4999999999999997  0.4999999999999997   T   T   T
  0.4999999999999998  0.6235624038346687  0.2471248076693378   T   T   T
  0.4999999999999998  0.7495948769750861  0.0000000000000004   T   T   T
  0.4999999999999998  0.8148036257463160  0.8579901621437773   T   T   T
  0.4999999999999998  0.0431865363974615  0.8579901621437773   T   T   T
  0.4999999999999998  0.9309036874385307  0.6208738026425842   T   T   T
  0.4999999999999998  0.1700449146315270  0.6154329323515507   T   T   T
  0.4999999999999998  0.0690963125614688  0.3791261973574153   T   T   T
  0.4999999999999998  0.3100298847959463  0.3791261973574155   T   T   T
  0.4999999999999998  0.1851963742536842  0.1420098378562225   T   T   T
 -0.0000000000000000  0.2365856577643140  0.0000000000000001   T   T   T
  0.4999999999999998  0.4358966102267388  0.1258300944273973   T   T   T
  0.4999999999999998  0.3100665157993415  0.8741699055726023   T   T   T
  0.0000000000000000  0.3704007203121290  0.7408014406242583   T   T   T
  0.4999999999999998  0.5641033897732607  0.8741699055726027   T   T   T
  0.4999999999999998  0.4453880177200236  0.6154329323515507   T   T   T
  0.4999999999999998  0.6899701152040535  0.6208738026425844   T   T   T
  0.4999999999999998  0.5546119822799758  0.3845670676484488   T   T   T
 -0.0000000000000000  0.6295992796878705  0.2591985593757410   T   T   T
  0.4999999999999998  0.8299550853684724  0.3845670676484486   T   T   T
  0.4999999999999998  0.6899334842006583  0.1258300944273973   T   T   T
 -0.0000000000000000  0.7634143422356860  0.0000000000000003   T   T   T
  0.4999999999999998  0.9568134636025375  0.1420098378562226   T   T   T
