Sr Co O 
 1.0000000000000000
     3.8439451603121455    4.0395495037931672    0.0000000000000000
     3.8439451603121455   -4.0395495037931681    0.0000000000000000
     0.0000000000000000    0.0000000000000000  -15.0196532173936550
 Sr  Co  O  
   8   8  21
Selective dynamics
Direct
 -0.0071324180504423  0.0071324180504424  0.0018996472377861   T   T   T
 -0.0130050269410365  0.0130050269410365  0.7476265967030220   T   T   T
 -0.0130050269410365  0.0130050269410365  0.5023734032969799   T   T   T
 -0.0071324180504423  0.0071324180504424  0.2481003527622143   T   T   T
  0.5071324180504417  0.4928675819495579  0.0018996472377861   T   T   T
  0.5130050269410360  0.4869949730589638  0.7476265967030220   T   T   T
  0.5130050269410359  0.4869949730589638  0.5023734032969797   T   T   T
  0.5071324180504417  0.4928675819495579  0.2481003527622143   T   T   T
  0.5056090648397603  0.0056090648397602  0.8693983995382061   T   T   T
  0.5020377741869090  0.0020377741869089  0.6250000000000006   T   T   T
  0.5056090648397603  0.0056090648397602  0.3806016004617953   T   T   T
  0.4942748007273998 -0.0057251992726003  0.1250000000000001   T   T   T
 -0.0056090648397609  0.4943909351602402  0.8693983995382060   T   T   T
 -0.0020377741869097  0.4979622258130914  0.6250000000000006   T   T   T
 -0.0056090648397609  0.4943909351602402  0.3806016004617953   T   T   T
  0.0057251992725996  0.5057251992726007  0.1250000000000001   T   T   T
  0.4722039003198929 -0.0277960996801072 -0.0132036965519723   T   T   T
  0.2499999999999998  0.2500000000000000  0.8690588530017317   T   T   T
  0.4446133585566255 -0.0553866414433746  0.7482287088070732   T   T   T
  0.2499999999999998  0.2500000000000000  0.6250000000000006   T   T   T
  0.4446133585566254 -0.0553866414433747  0.5017712911929272   T   T   T
  0.2499999999999998  0.2500000000000000  0.3809411469982693   T   T   T
  0.4722039003198929 -0.0277960996801072  0.2632036965519723   T   T   T
  0.2499999999999992  0.7500000000000007  0.1250000000000001   T   T   T
  0.2499999999999998  0.2500000000000000  0.1250000000000001   T   T   T
  0.0277960996801070  0.5277960996801081 -0.0132036965519723   T   T   T
  0.7499999999999997  0.2500000000000001  0.8585279671637831   T   T   T
  0.7499999999999994  0.7500000000000007  0.8690588530017316   T   T   T
  0.0553866414433744  0.5553866414433752  0.7482287088070732   T   T   T
  0.7499999999999997  0.2500000000000001  0.6250000000000006   T   T   T
  0.7499999999999994  0.7500000000000007  0.6250000000000006   T   T   T
  0.0553866414433744  0.5553866414433752  0.5017712911929271   T   T   T
  0.7499999999999997  0.2500000000000001  0.3914720328362183   T   T   T
  0.7499999999999994  0.7500000000000007  0.3809411469982694   T   T   T
  0.0277960996801070  0.5277960996801081  0.2632036965519723   T   T   T
  0.7499999999999997  0.2500000000000001  0.1250000000000001   T   T   T
  0.7499999999999994  0.7500000000000007  0.1250000000000001   T   T   T
