Sr Co O 
 1.0000000000000000
     3.8873692808970683    0.0000000000000000    0.0000000000000000
     0.0000000000000000    3.7660041372794328    0.0000000000000000
     0.0000000000000000    0.0000000000000000   24.4690229753127184
 Sr  Co  O  
   6   6  13
Selective dynamics
Direct
  0.0000000000000000  0.0000000000000000 -0.0054254908856155   T   T   T
  0.0000000000000000  0.0000000000000000  0.1718193788297370   T   T   T
  0.0000000000000000  0.0000000000000000  0.3124906467685768   T   T   T
  0.0000000000000000  0.0000000000000000  0.5145121334954358   T   T   T
  0.0000000000000000  0.0000000000000000  0.6765550527671339   T   T   T
  0.0000000000000000  0.0000000000000000  0.8318978408593740   T   T   T
  0.5000000000000001  0.4999999999999993  0.1022742621411190   T   T   T
  0.5000000000000001  0.4999999999999993  0.2356637908888110   T   T   T
  0.5000000000000001  0.4999999999999993  0.4077504372869865   T   T   T
  0.5000000000000001  0.4999999999999993  0.5961213108250667   T   T   T
  0.5000000000000001  0.4999999999999993  0.7542587588849498   T   T   T
  0.5000000000000001  0.4999999999999993  0.9125046477439855   T   T   T
  0.5000000000000001  0.4999999999999993  0.0306566034102875   T   T   T
  0.0000000000000000  0.4999999999999993  0.2440241999746537   T   T   T
  0.5000000000000001  0.0000000000000000  0.2365504484840380   T   T   T
  0.5000000000000001  0.0000000000000000  0.3749758872774890   T   T   T
  0.5000000000000001  0.4999999999999993  0.4808145771787852   T   T   T
  0.0000000000000000  0.4999999999999993  0.5847447918326676   T   T   T
  0.5000000000000001  0.0000000000000000  0.5825072161143324   T   T   T
  0.5000000000000001  0.4999999999999993  0.6746178284840830   T   T   T
  0.0000000000000000  0.4999999999999993  0.7547293135194576   T   T   T
  0.5000000000000001  0.0000000000000000  0.7549031190629020   T   T   T
  0.5000000000000001  0.4999999999999993  0.8347606647049700   T   T   T
  0.0000000000000000  0.4999999999999993  0.9251833790774494   T   T   T
  0.5000000000000001  0.0000000000000000  0.9277758933372783   T   T   T
