Sr Co O 
 1.0000000000000000
     8.0511915836685422   -0.0000000000000000    0.0000000000000000
     0.0000000000000000    7.9262663640068940   -0.0000000000000000
    -0.0000000000000000   -0.0000000000000000    7.5420509011653794
 Sr  Co  O  
   8   8  20
Selective dynamics
Direct
 -0.0280058651278658  0.0014598943415625  0.0000000000000000   T   T   T
 -0.0280058651278658 -0.0014598943415625  0.5000000000000000   T   T   T
 -0.0216783304121949  0.5135305830521453  0.0000000000000000   T   T   T
 -0.0216783304121949  0.4864694169478545  0.5000000000000000   T   T   T
  0.5280058651278658  0.0014598943415625 -0.0000000000000000   T   T   T
  0.5280058651278658 -0.0014598943415625  0.5000000000000000   T   T   T
  0.5216783304121951  0.5135305830521447 -0.0000000000000000   T   T   T
  0.5216783304121951  0.4864694169478546  0.5000000000000000   T   T   T
  0.2499999999999998  0.2659076886248028  0.2099951092106556   T   T   T
  0.2499999999999998  0.2659076886248027  0.7900048907893445   T   T   T
  0.2499999999999998  0.7340923113751965  0.2900048907893442   T   T   T
  0.2499999999999998  0.7340923113751965  0.7099951092106561   T   T   T
  0.7500000000000001  0.2491313672750059  0.2493859304032613   T   T   T
  0.7500000000000001  0.2491313672750059  0.7506140695967389   T   T   T
  0.7500000000000001  0.7508686327249937  0.2506140695967387   T   T   T
  0.7500000000000001  0.7508686327249937  0.7493859304032611   T   T   T
  0.2499999999999998  0.1354613519288144  0.0000000000000000   T   T   T
  0.0321238007225988  0.2358079565196388  0.2643127610371617   T   T   T
  0.0321238007225988  0.2358079565196387  0.7356872389628385   T   T   T
  0.0321238007225988  0.7641920434803608  0.2356872389628381   T   T   T
  0.2499999999999998  0.4999999999999999  0.2500000000000000   T   T   T
  0.2499999999999998  0.8645386480711847  0.5000000000000000   T   T   T
  0.0321238007225988  0.7641920434803608  0.7643127610371615   T   T   T
  0.2499999999999998  0.4999999999999999  0.7500000000000004   T   T   T
  0.7500000000000001  0.2531442601246787  0.0000000000000000   T   T   T
  0.4678761992774012  0.2358079565196387  0.2643127610371617   T   T   T
  0.7500000000000001  0.0000000000000000  0.2500000000000000   T   T   T
  0.7500000000000001  0.2526639436259601  0.5000000000000000   T   T   T
  0.4678761992774012  0.2358079565196388  0.7356872389628385   T   T   T
  0.7500000000000001  0.0000000000000000  0.7500000000000004   T   T   T
  0.7500000000000001  0.7473360563740403  0.0000000000000000   T   T   T
  0.4678761992774012  0.7641920434803608  0.2356872389628381   T   T   T
  0.7500000000000001  0.4999999999999999  0.2500000000000000   T   T   T
  0.7500000000000001  0.7468557398753208  0.5000000000000000   T   T   T
  0.4678761992774012  0.7641920434803608  0.7643127610371615   T   T   T
  0.7500000000000001  0.4999999999999999  0.7500000000000004   T   T   T
