Sr Co O 
 1.0000000000000000
    -7.7704634693150947    0.0000000000000000   -0.0000000000000001
     0.0000000000000000   -8.0147961729530479    0.0065855072889020
     3.8852317346575473   -0.0059941333137036    7.8871914790418813
 Sr  Co  O  
   8   8  20
Selective dynamics
Direct
 -0.0167986065126260  0.0091672824956942  0.0020325615600081   T   T   T
  0.2540855252046046  0.0178934714255441  0.4938355954346103   T   T   T
  0.4999432553496166  0.0346286878558802  0.0122027207616454   T   T   T
  0.7282453061092020  0.0251220987142034  0.4905629221421761   T   T   T
 -0.0122594654120285  0.4653713121441194 -0.0122027207616454   T   T   T
  0.2602499297699944  0.4821065285744556  0.5061644045653900   T   T   T
  0.4811688319273655  0.4908327175043051 -0.0020325615600081   T   T   T
  0.7376823839670248  0.4748779012857963  0.5094370778578243   T   T   T
  0.8774198535544212  0.7678708328689832  0.2722693684135691   T   T   T
  0.1051504851408519  0.7321291671310147  0.7277306315864319   T   T   T
  0.4051209451159621  0.7419662188128218  0.2679850584596388   T   T   T
  0.6371358866563221  0.7580337811871771  0.7320149415403616   T   T   T
  0.8654705795732845  0.2407736059149123  0.2520328970744037   T   T   T
  0.1134376824988796  0.2592263940850867  0.7479671029255964   T   T   T
  0.3600566827808789  0.2578809545959327  0.2448593081805108   T   T   T
  0.6151973746003668  0.2421190454040660  0.7551406918194896   T   T   T
  0.9341374608578910  0.7219206597591099  0.1044065087927203   T   T   T
  0.8433102609018277 -0.0016875399904021  0.2484402685397706   T   T   T
  0.0702948565083263  0.7499999999999989  0.5000000000000001   T   T   T
  0.3297309520651708  0.7780793402408890 -0.1044065087927203   T   T   T
  0.6538761477144172  0.6894888103200923  0.2718009071334715   T   T   T
  0.3589276421057955 -0.0349339708397738  0.2356699855847550   T   T   T
  0.4568229203220901  0.7499999999999989  0.5000000000000001   T   T   T
  0.8820752405809448  0.8105111896799058  0.7281990928665286   T   T   T
  0.6024810811397817 -0.0268102316360654  0.7753741023282609   T   T   T
  0.7402428463479368  0.2650490509753935  0.0029529659205970   T   T   T
  0.1053122141460510  0.2586691580973404  0.2524914213355058   T   T   T
 -0.0125777498376085  0.2499999999999997  0.5000000000000000   T   T   T
  0.3528207928105448  0.2413308419026592  0.7475085786644949   T   T   T
  0.0948699923620554  0.5016875399904018  0.7515597314602303   T   T   T
  0.2372898804273405  0.2349509490246053 -0.0029529659205970   T   T   T
  0.6235279178739748  0.2778661165926583  0.2509016080008721   T   T   T
  0.3271069788115220  0.5268102316360649  0.2246258976717389   T   T   T
  0.4925598572714913  0.2499999999999997  0.4999999999999999   T   T   T
  0.8726263098731017  0.2221338834073411  0.7490983919991289   T   T   T
  0.6232576565210395  0.5349339708397730  0.7643300144152462   T   T   T
