Sr Co O 
 1.0000000000000000
    -3.9912035644383028    0.0177707537156407   -3.9556774496193605
    -3.9616219018549619   -7.8209784254647960    3.9605540727753135
    -4.0652274587402024    7.8893182078810913    3.9948358032234057
 Sr  Co  O  
   8   8  20
Selective dynamics
Direct
 -0.0060818927221851  0.0293448857164591 -0.0109493414764811   T   T   T
  0.4879517177079810  0.2667185420484409  0.2261324568588293   T   T   T
  0.0101045397435055  0.4869743577329594  0.4864600545911977   T   T   T
  0.5173022622700002  0.7392400423555362  0.7337711213448344   T   T   T
  0.5060818927221850 -0.0293448857164595  0.5109493414764817   T   T   T
 -0.0173022622700012  0.2607599576444625  0.7662288786551649   T   T   T
  0.4898954602564946  0.5130256422670407  0.0135399454088017   T   T   T
  0.0120482822920182  0.7332814579515589  0.2738675431411695   T   T   T
  0.5033397747529161  0.8790187535671555  0.1611715403206988   T   T   T
 -0.0033397747529167  0.1209812464328440  0.3388284596792998   T   T   T
  0.4990669508564452  0.3891002921636734  0.6385022953348796   T   T   T
  0.0009330491435551  0.6108997078363263  0.8614977046651202   T   T   T
  0.0101031168450465  0.8614913187749526  0.6471850568134508   T   T   T
  0.4898968831549542  0.1385086812250456  0.8528149431865478   T   T   T
 -0.0069460862800042  0.3867783737959515  0.1227337863589526   T   T   T
  0.5069460862800047  0.6132216262040487  0.3772662136410466   T   T   T
  0.7499999999999993  0.0000000000000001  0.2499999999999998   T   T   T
  0.2500000000000003  0.0000000000000002  0.2500000000000002   T   T   T
  0.0585921280536427  0.2276499962198023  0.5153358193969600   T   T   T
 -0.0161531211402733  0.2530769267057685  0.2370458562799692   T   T   T
  0.7500000000000003  0.5000000000000004  0.7499999999999996   T   T   T
  0.5100965014249053  0.4518380061420585  0.4811646648495710   T   T   T
  0.2499999999999994  0.4999999999999996  0.7499999999999994   T   T   T
  0.4414078719463579  0.7723500037801977 -0.0153358193969605   T   T   T
 -0.0249617388182456  0.7751683393954709  0.8140166704279120   T   T   T
  0.2660254711987924  0.7428009727837479  0.5138110408894865   T   T   T
  0.2499999999999998 -0.0000000000000001  0.7500000000000000   T   T   T
  0.7499999999999996  0.0000000000000000  0.7499999999999999   T   T   T
  0.7125433307973630  0.2472738361719810 -0.0119216219361559   T   T   T
  0.5249617388182445  0.2248316606045279  0.6859833295720863   T   T   T
  0.2339745288012070  0.2571990272162523 -0.0138110408894873   T   T   T
  0.2500000000000001  0.5000000000000000  0.2499999999999998   T   T   T
 -0.0100965014249064  0.5481619938579412  0.0188353351504278   T   T   T
  0.7499999999999997  0.5000000000000000  0.2499999999999993   T   T   T
  0.7874566692026372  0.7527261638280197  0.5119216219361552   T   T   T
  0.5161531211402728  0.7469230732942314  0.2629541437200295   T   T   T
