Sr Co O 
 1.0000000000000000
    -4.1588717018762233   -0.0000000000000000   -3.8357787506462198
    -4.1771430618421546   -7.5113432211076763    3.8493450622770040
    -4.1771430618421546    7.5113432211076763    3.8493450622770036
 Sr  Co  O  
   8   8  20
Selective dynamics
Direct
 -0.0136158740248359  0.0002409995320747  0.0026438842781392   T   T   T
  0.5026546634501362  0.2572854530475975  0.2486301006951098   T   T   T
 -0.0136158740248360  0.5026438842781383  0.5002409995320757   T   T   T
  0.5026546634501352  0.7486301006951087  0.7572854530475995   T   T   T
  0.5184630788294169  0.0107288176772164  0.5107288176772178   T   T   T
  0.0154827138877250  0.2631903072513982  0.7631903072514012   T   T   T
  0.5129254604321720  0.4772403073688607 -0.0227596926311397   T   T   T
 -0.0062248964560874  0.7292767620395602  0.2292767620395603   T   T   T
  0.5151401293225898  0.8432546288333550  0.1305897990398787   T   T   T
  0.0008221368582195  0.1499794024276936  0.4029733058890563   T   T   T
  0.5052373780489323  0.3731571545181768  0.6293603067380970   T   T   T
  0.0025520067429556  0.6212109126777990  0.8625801148143915   T   T   T
  0.0008221368582181  0.9029733058890544  0.6499794024276961   T   T   T
  0.5052373780489313  0.1293603067380951  0.8731571545181787   T   T   T
  0.0025520067429577  0.3625801148143902  0.1212109126778008   T   T   T
  0.5151401293225893  0.6305897990398793  0.3432546288333549   T   T   T
  0.7526667572911970  0.7605239245151720 -0.0132452889720124   T   T   T
  0.6847502059109120 -0.0081550949899734  0.2300867001996559   T   T   T
  0.2571367904872029  0.2522557595501055  0.5053166392426680   T   T   T
  0.0497770430224815  0.2092442973580741  0.2366783989318537   T   T   T
  0.7243277286036482  0.2842992014430198  0.4782277364510001   T   T   T
  0.7434799560856211  0.5035603860058246  0.7345637873922681   T   T   T
  0.2679855954862125  0.4958663494017003  0.7417231889735796   T   T   T
  0.2664276942049894  0.7784761416384717  0.0173100996870924   T   T   T
  0.0497770430224794  0.7366783989318519  0.7092442973580756   T   T   T
  0.2571367904872026  0.0053166392426663  0.7522557595501074   T   T   T
 -0.0163643638191239  0.0000367397053706  0.5000367397053720   T   T   T
  0.7243277286036478 -0.0217722635490018  0.7842992014430220   T   T   T
  0.7434799560856236  0.2345637873922674  0.0035603860058254   T   T   T
  0.5678381887949455  0.2399581316511961  0.7399581316511979   T   T   T
  0.2679855954862138  0.2417231889735781 -0.0041336505982989   T   T   T
  0.2664276942049892  0.5173100996870927  0.2784761416384716   T   T   T
  0.0011567213850317  0.4993300916148005 -0.0006699083851998   T   T   T
  0.7526667572911965  0.4867547110279876  0.2605239245151724   T   T   T
  0.6847502059109121  0.7300867001996544  0.4918449050100276   T   T   T
  0.3880389765198421  0.8016006237688499  0.3016006237688506   T   T   T
