Sr Co O 
 1.0000000000000000
    -3.7009395957078857    0.0000000000000000    0.0000000000000000
     0.0000000000000000    3.9770242388918251    7.9129245936126695
     0.0000000000000000   11.9360888073241203   -7.9153478664782320
 Sr  Co  O  
   8   8  21
Selective dynamics
Direct
  0.0000000000000000 -0.0131587393658851 -0.0032080561719551   T   T   T
 -0.0000000000000000  0.3608226962107655  0.8724024017659182   T   T   T
  0.0000000000000000  0.7641773037892319  0.7525975982340823   T   T   T
 -0.0000000000000000  0.1381587393658847  0.6282080561719552   T   T   T
 -0.0000000000000000  0.4915644651984266  0.4931219869035012   T   T   T
  0.0000000000000000  0.8775874147033619  0.3688468792113560   T   T   T
 -0.0000000000000000  0.2474125852966365  0.2561531207886446   T   T   T
 -0.0000000000000000  0.6334355348015712  0.1318780130964991   T   T   T
  0.5000000000000002  0.3103591776967423  0.0605018778819836   T   T   T
  0.5000000000000002  0.6871404540977341  0.9440612215538356   T   T   T
  0.5000000000000002  0.0625000000000006  0.8125000000000008   T   T   T
  0.5000000000000002  0.4378595459022636  0.6809387784461647   T   T   T
  0.5000000000000002  0.8146408223032560  0.5644981221180174   T   T   T
  0.5000000000000002  0.1858317012877935  0.4369181076834390   T   T   T
  0.5000000000000002  0.5624999999999986  0.3124999999999998   T   T   T
  0.5000000000000002  0.9391682987122041  0.1880818923165617   T   T   T
  0.5000000000000002  0.1407860623482238  0.1191803112085757   T   T   T
  0.5000000000000002  0.1877736030986864  0.9470383681224849   T   T   T
  0.5000000000000002  0.4783345800220922 -0.0047358167010786   T   T   T
 -0.0000000000000000  0.6521912351966153  0.9150128620621036   T   T   T
  0.5000000000000002  0.8569190870265403  0.8706311514744567   T   T   T
 -0.0000000000000000  0.0625000000000006  0.8125000000000008   T   T   T
  0.5000000000000002  0.9372263969013118  0.6779616318775165   T   T   T
  0.5000000000000002  0.2680809129734582  0.7543688485255443   T   T   T
  0.0000000000000000  0.4728087648033827  0.7099871379378970   T   T   T
  0.5000000000000002  0.3196281153030392  0.5639527723855347   T   T   T
  0.5000000000000002  0.6466654199779056  0.6297358167010790   T   T   T
  0.5000000000000002  0.6945390854838553  0.4536574015231149   T   T   T
  0.5000000000000002 -0.0157860623482242  0.5058196887914248   T   T   T
 -0.0000000000000000  0.1835747188636535  0.4422669502653722   T   T   T
  0.5000000000000002  0.0624999999999999  0.3125000000000000   T   T   T
  0.5000000000000002  0.3783426234951947  0.3724136566443848   T   T   T
 -0.0000000000000000  0.5624999999999986  0.3124999999999998   T   T   T
  0.5000000000000002  0.4304609145161420  0.1713425984768853   T   T   T
  0.5000000000000002  0.7466573765048035  0.2525863433556160   T   T   T
  0.0000000000000000  0.9414252811363445  0.1827330497346287   T   T   T
  0.5000000000000002  0.8053718846969586  0.0610472276144661   T   T   T
