Sr Co O 
 1.0000000000000000
     3.8699757848205101    3.9337972850031888    3.8828500474557122
    -3.8699757848205101    3.9337972850031888   -3.8828500474557122
    -7.7441376037312892   -0.0000000000000000    7.7698532530617070
 Sr  Co  O  
   8   8  20
Selective dynamics
Direct
  0.0013429667864412  0.0005236862613084 -0.0075555877596167   T   T   T
  0.2400662833375155  0.7571057453414302  0.2581497619829503   T   T   T
  0.4874974787964572  0.4944419482501870  0.5009889500966209   T   T   T
  0.7624807266777923  0.2328547508024768  0.7477735435929569   T   T   T
  0.4994763137386927  0.4986570332135577 -0.0075555877596157   T   T   T
  0.7428942546585697  0.2599337166624824  0.2581497619829513   T   T   T
  0.0055580517498113  0.0125025212035435  0.5009889500966197   T   T   T
  0.2671452491975218  0.7375192733222088  0.7477735435929567   T   T   T
  0.4952822402573813  0.0047177597426189  0.0046103870287678   T   T   T
  0.7418971586259746  0.7581028413740243  0.2708886659021587   T   T   T
  0.0062290597645239  0.4937709402354754  0.4938609368256031   T   T   T
  0.2548391890080288  0.2451608109919715  0.7395428584336676   T   T   T
  0.0134813981050133  0.4865186018949862 -0.0098954810442267   T   T   T
  0.2450934984298321  0.2549065015701674  0.2438127629792692   T   T   T
  0.4967347178517302  0.0032652821482703  0.5029877502331335   T   T   T
  0.7507101037753037  0.7492898962246949  0.7553258654610674   T   T   T
  0.3689159780763664  0.1310840219236336  0.1168834695850307   T   T   T
  0.2599314197180471  0.7708754292212766  0.0045107570517851   T   T   T
  0.6004280851882102  0.8995719148117886  0.3630312903940723   T   T   T
  0.5274731285941666  0.5396599105614143  0.2203418748652861   T   T   T
  0.8755868135349252  0.6244131864650736  0.3728516120091904   T   T   T
  0.7567856573483224  0.2863220497378244  0.5123581467649643   T   T   T
  0.1136748211709023  0.3863251788290969  0.6335495510526205   T   T   T
  0.1625289991214645  0.3374710008785355  0.8814215877960939   T   T   T
  0.0081584222529671 -0.0375777095808529  0.7458107340487474   T   T   T
  0.8826762165510025  0.6173237834489961  0.8886598452032649   T   T   T
  0.7291245707787231  0.2400685802819509  0.0045107570517860   T   T   T
  0.0991633531768939  0.4008366468231055  0.1300226701870543   T   T   T
  0.1275925498020000  0.3724074501979994  0.3692155013529931   T   T   T
 -0.0396599105614162 -0.0274731285941663  0.2203418748652848   T   T   T
  0.3645119812585931  0.1354880187414065  0.3813767765840222   T   T   T
  0.3903430878393951  0.1096569121606054  0.6442704410277078   T   T   T
  0.2136779502621733  0.7432143426516764  0.5123581467649633   T   T   T
  0.6434070822761074  0.8565929177238913  0.6135563882755595   T   T   T
  0.6173733955577801  0.8826266044422184  0.8892707953352565   T   T   T
  0.5375777095808534  0.4918415777470312  0.7458107340487488   T   T   T
