Sr Co O 
 1.0000000000000000
     3.7492518137941859    0.0000000000000000    0.0000000000000000
     0.0000000000000000    7.9347904072354982    0.0219315523191608
     0.0000000000000000    0.0445266085712984   15.8405218514928272
 Sr  Co  O  
   8   8  21
Selective dynamics
Direct
  0.0000000000000000  0.0126858889523541 -0.0111820151596302   T   T   T
  0.0000000000000000  0.0103044505683995  0.2626415285887675   T   T   T
  0.0000000000000000 -0.0132162652364871  0.5021610096188062   T   T   T
  0.0000000000000000 -0.0009363757782609  0.7479606027222718   T   T   T
  0.0000000000000000  0.4806869745085995 -0.0029637054128034   T   T   T
  0.0000000000000000  0.4933766007149377  0.2593635244455579   T   T   T
  0.0000000000000000  0.5159299157346257  0.4998218587393395   T   T   T
  0.0000000000000000  0.4964650786227158  0.7487008359489774   T   T   T
  0.4999999999999997  0.2563403044313112  0.1244985720044435   T   T   T
  0.4999999999999997  0.2538748100695314  0.3725453581735330   T   T   T
  0.4999999999999997  0.2497161752346589  0.6294879574660798   T   T   T
  0.4999999999999997  0.2493306814371492  0.8740521008943894   T   T   T
  0.4999999999999997  0.7362373215643657  0.1356042790796332   T   T   T
  0.4999999999999997  0.7555094835973253  0.3767135410863814   T   T   T
  0.4999999999999997  0.7475696240548317  0.6238041952903473   T   T   T
  0.4999999999999997  0.7443931653230477  0.8666930557342437   T   T   T
  0.4999999999999997  0.2296762221554790  0.0047528225317843   T   T   T
  0.0000000000000000  0.2039806949621254  0.1266121644886277   T   T   T
  0.4999999999999997  0.2486928272389694  0.2446318404647269   T   T   T
  0.0000000000000000  0.2559840073696844  0.3953265587798148   T   T   T
  0.4999999999999997  0.0216373754489311  0.3854245302863392   T   T   T
  0.0000000000000000  0.2494003954523500  0.5980697569653534   T   T   T
  0.4999999999999997  0.0194318619190098  0.6209496082896362   T   T   T
  0.4999999999999997  0.2530926180515602  0.7493318330147676   T   T   T
  0.0000000000000000  0.2497934797793142  0.8735659243007838   T   T   T
  0.4999999999999997 -0.0205669264286829  0.8774181894822795   T   T   T
  0.0000000000000000  0.7931564518430952  0.1051041832925121   T   T   T
  0.4999999999999997  0.5094050379853272  0.1118079975135832   T   T   T
  0.4999999999999997  0.7825976413380947  0.2482808758315898   T   T   T
  0.0000000000000000  0.7518294344022464  0.3727213638218112   T   T   T
  0.4999999999999997  0.4893264222560532  0.3746446892583042   T   T   T
  0.4999999999999997  0.7490961829395533  0.5010143690975248   T   T   T
  0.0000000000000000  0.7491121948852808  0.6273179532549332   T   T   T
  0.4999999999999997  0.4786214612455701  0.6165532685977665   T   T   T
  0.4999999999999997  0.7419764551834066  0.7488029443291558   T   T   T
  0.0000000000000000  0.7436236752256232  0.8986453232276774   T   T   T
  0.4999999999999997  0.5118646197346810  0.8841209762995109   T   T   T
