Sr Co O 
 1.0000000000000000
     3.9178858058562023   -4.0626643759162766   -0.0593689911311406
    -3.7615305987852188    0.0338002779364077   -7.5683995372602162
     7.9254769418905884    8.2166674270127587   -0.2323081323451072
 Sr  Co  O  
   8   8  20
Selective dynamics
Direct
 -0.0161162661134198  0.0248239665775225  0.0021414776642781   T   T   T
  0.7528911823826780  0.4813125247019193  0.8636639209251307   T   T   T
  0.4987842679867966 -0.0330573718298202  0.7202494018510311   T   T   T
  0.2605816275293136  0.4816053074401735  0.6012460571417050   T   T   T
  0.0017071026216237 -0.0141619042593151  0.4869567540854388   T   T   T
  0.7639338543242984  0.5108695973671290  0.3766657549602867   T   T   T
  0.5189502184348037  0.0220366476744748  0.2715458010240608   T   T   T
  0.2433224303397835  0.5279487846977038  0.1367308441628843   T   T   T
  0.8375931460992907  0.7373471583465095  0.1714272080944251   T   T   T
  0.6015678522618163  0.2528804859772887  0.0857976076973338   T   T   T
  0.3890823869968710  0.7936623834276928  0.9540786195900859   T   T   T
  0.1118151754872787  0.2085474131641653  0.7846444226781313   T   T   T
  0.8832291078965601  0.7332391332769448  0.6604205133373808   T   T   T
  0.6400054374798083  0.2451091571797606  0.5602914031435864   T   T   T
  0.3860021073877380  0.7545964378138024  0.4289376132962545   T   T   T
  0.1460739358714926  0.2714428797529921  0.3156319659398224   T   T   T
  0.6450407913933882  0.8239288656701694  0.0875597425983196   T   T   T
  0.6604839106651791  0.4789430843769470  0.0816464599145090   T   T   T
  1.0460197785726713  0.3113782935406303  0.9321788860353132   T   T   T
  0.4964338598002374  0.0444403047157438 -0.0447308902463132   T   T   T
  0.0913032808789648  0.7433692588038787  1.0138267324302170   T   T   T
  0.4773337553121951  0.6852928266940558  0.8132619903724493   T   T   T
  0.8622434094631476  0.2054885997516648  0.6695385508403804   T   T   T
  0.3859443818412776  0.2449686225304084  0.7058240915861581   T   T   T
 -0.0006767104825501 -0.0460501758461792  0.7721799333196803   T   T   T
  0.6194844502756445  0.7334596233053045  0.5562312899956677   T   T   T
  0.1310486459571908  0.7449095897464574  0.5518318170007972   T   T   T
  0.8140943581213257  0.5049683044698234  0.6485443550819991   T   T   T
  0.4242286446772774  0.2784697986865033  0.4400733534225845   T   T   T
  0.9129997876455114  0.2278916823171056  0.4210966223341047   T   T   T
  0.4782904308066637 -0.0061044552156371  0.4888271425651176   T   T   T
  0.1150500744926264  0.7797158817539454  0.2773220241725072   T   T   T
  0.6439243694224183  0.7622664639713080  0.3134009500027243   T   T   T
  0.2390020465378719  0.5187149761271473  0.3573401254145065   T   T   T
  0.8637753722722189  0.2537179546200548  0.1861209049610872   T   T   T
  0.3245539810883610  0.2120283671282547  0.1824959436704273   T   T   T
