Sr Co O 
 1.0000000000000000
    -3.9267548115336619    0.0000000000000000   -3.9267548115336601
     0.0000000000000000   -7.7712158034427068   -0.0000000000000000
    -7.8273506271818425    3.8856079017213530    7.8273506271818389
 Sr  Co  O  
   8   8  22
Selective dynamics
Direct
  0.0000000000000000  0.0122256627127444 -0.0094456321513632   T   T   T
  0.5000000000000002  0.1466712948641079  0.2594456321513633   T   T   T
 -0.0000000000000001  0.2637774986830290  0.5083705289721020   T   T   T
  0.4999999999999999  0.3612225013169711  0.7416294710278978   T   T   T
  0.0000000000000000  0.4783287051358922 -0.0094456321513632   T   T   T
  0.5000000000000002  0.6127743372872559  0.2594456321513633   T   T   T
 -0.0000000000000001  0.7445930302890728  0.5083705289721020   T   T   T
  0.5000000000000001  0.8804069697109269  0.7416294710278978   T   T   T
  0.5000000000000003  0.7366193163266772 -0.0267613673466458   T   T   T
  0.0000000000000002  0.8883806836733231  0.2767613673466463   T   T   T
  0.5000000000000003  0.0000299144386301  0.5000598288772603   T   T   T
  0.0000000000000000  0.1240663483025038  0.7481326966050079   T   T   T
  0.5000000000000001  0.2525884898926561  0.0051769797853121   T   T   T
  0.0000000000000003  0.3724115101073439  0.2448230202146880   T   T   T
  0.4999999999999997  0.5009336516974960  0.5018673033949917   T   T   T
 -0.0000000000000009  0.6249700855613697  0.7499401711227394   T   T   T
  0.7727194076836895  0.6915801640025084  0.8831603280050162   T   T   T
  0.5000000000000002 -0.0220586215006954  0.0273375713566980   T   T   T
  0.2727194076836892  0.9334198359974917  0.3668396719949832   T   T   T
  0.0000000000000002  0.0756038071426065  0.2226624286433021   T   T   T
  0.7272805923163109  0.9334198359974915  0.3668396719949829   T   T   T
  0.7445024852408938  0.0580299372839493  0.6160598745678986   T   T   T
  0.4999999999999999  0.2660908072636186  0.5000516695258436   T   T   T
  0.2554975147591060  0.0580299372839496  0.6160598745678992   T   T   T
  0.2626244322328082  0.1907418075412334  0.8814836150824671   T   T   T
 -0.0000000000000004  0.3589091927363813  0.7499483304741558   T   T   T
  0.7373755677671914  0.1907418075412333  0.8814836150824664   T   T   T
  0.7500000000000006  0.3125000000000001  0.1249999999999998   T   T   T
  0.5000000000000003  0.5493961928573938  0.0273375713566981   T   T   T
  0.2500000000000000  0.3125000000000000  0.1250000000000000   T   T   T
  0.2373755677671920  0.4342581924587663  0.3685163849175327   T   T   T
  0.0000000000000002  0.6470586215006957  0.2226624286433021   T   T   T
  0.7626244322328084  0.4342581924587665  0.3685163849175325   T   T   T
  0.7554975147591063  0.5669700627160508  0.6339401254321008   T   T   T
  0.4999999999999999  0.7339608622622251  0.5000516695258436   T   T   T
  0.2445024852408932  0.5669700627160503  0.6339401254321005   T   T   T
  0.2272805923163112  0.6915801640025084  0.8831603280050166   T   T   T
 -0.0000000000000004  0.8910391377377752  0.7499483304741558   T   T   T
