Sr Co O 
 1.0000000000000000
    -3.7821248795400284    3.9421565919458601    3.9421565919458659
     3.7967133909009658    0.0129546664527404    7.8865798409521828
     3.7967133909009663    7.8865798409521757    0.0129546664527427
 Sr  Co  O  
   8   8  20
Selective dynamics
Direct
  0.0000000000000000  0.0052580903349556 -0.0052580903349556   T   T   T
  0.2594436555797391  0.3755000248020924  0.8531558336368756   T   T   T
  0.4715864748507103  0.7458826049102310  0.7518905874088490   T   T   T
  0.7405563444202613  0.1468441663631247  0.6244999751979072   T   T   T
 -0.0000000000000006  0.4926114572540819  0.5073885427459176   T   T   T
  0.2586614835446311  0.8652447919767743  0.3777844951394520   T   T   T
  0.5284135251492883  0.2481094125911504  0.2541173950897686   T   T   T
  0.7413385164553689  0.6222155048605477  0.1347552080232259   T   T   T
 -0.0159938004166789  0.2359105450126340  0.2625229359678198   T   T   T
  0.2576283735494624  0.6337177338492437  0.1308790198509793   T   T   T
  0.5000000000000002  0.0024305680362203 -0.0024305680362200   T   T   T
  0.7427976912652886  0.3806792831558333  0.8714622813207485   T   T   T
  0.0159938004166788  0.7374770640321807  0.7640894549873648   T   T   T
  0.2572023087347111  0.1285377186792514  0.6193207168441662   T   T   T
  0.4999999999999991  0.5024225771518137  0.4975774228481860   T   T   T
  0.7423716264505371  0.8691209801490207  0.3662822661507568   T   T   T
  0.9009948340168618  0.0391496138062420  0.3087227235515353   T   T   T
  0.9312234739087816  0.3087121720556963  0.0651179780268088   T   T   T
  0.4765849468802848  0.4835935116097927  0.0125118570839927   T   T   T
  0.0990051659831374  0.6912772764484675  0.9608503861937566   T   T   T
  0.3719643786667708  0.8342151593755567  0.0634180177144610   T   T   T
  0.3736327291913437  0.0625498166924900  0.8290677845347140   T   T   T
  0.6263672708086553  0.1709322154652856  0.9374501833075096   T   T   T
 -0.0000000000000004  0.2617756855922366  0.7382243144077625   T   T   T
  0.6037108856880790  0.4484644976357063  0.6872137037858711   T   T   T
  0.8281769444220215  0.6134105358026977  0.8113643470742987   T   T   T
  0.2248786243474605  0.6262357322680563  0.6073473940455366   T   T   T
  0.0687765260912189  0.9348820219731925  0.6912878279443010   T   T   T
  0.5234150531197144 -0.0125118570839919  0.5164064883902058   T   T   T
  0.1718230555779769  0.1886356529257013  0.3865894641973012   T   T   T
  0.3962891143119208  0.3127862962141302  0.5515355023642931   T   T   T
  0.7751213756525386  0.3926526059544644  0.3737642677319417   T   T   T
  0.3892337647769131  0.5496140006751757  0.3073966769697070   T   T   T
  0.6107662352230865  0.6926033230302920  0.4503859993248250   T   T   T
 -0.0000000000000008  0.7224772805273897  0.2775227194726105   T   T   T
  0.6280356213332269  0.9365819822855367  0.1657848406244439   T   T   T
