Sr Co O 
 1.0000000000000000
     3.9031771091269660   -4.0857209412374873   -0.0462556336737555
    -3.7728202499599321    0.0336577964631645   -7.5682625625931399
     7.8858998576131265    8.2518767668842337   -0.1962812867896996
 Sr  Co  O  
   8   8  20
Selective dynamics
Direct
 -0.0073866866484067 -0.0026567649824744  0.0098221834569293   T   T   T
  0.7499999999999978  0.5000000000000004  0.8750000000000000   T   T   T
  0.5073866866484041  0.0026567649824745  0.7401778165430707   T   T   T
  0.2975289620988853  0.5074892098519053  0.6145102048820534   T   T   T
  0.0136512776627970 -0.0062304098356410  0.4929208985035942   T   T   T
  0.7499999999999999  0.5000000000000001  0.3750000000000006   T   T   T
  0.4863487223372006  0.0062304098356411  0.2570791014964058   T   T   T
  0.2024710379011121  0.4925107901480949  0.1354897951179466   T   T   T
  0.8778893060040692  0.7740682889068757  0.2107572832328088   T   T   T
  0.5982904797078911  0.2173661929197611  0.0621201984645217   T   T   T
  0.3703243760697023  0.7436910762640746  0.9049223940807966   T   T   T
  0.1296756239302955  0.2563089237359266  0.8450776059192042   T   T   T
  0.9017095202921083  0.7826338070802406  0.6878798015354787   T   T   T
  0.6221106939959294  0.2259317110931255  0.5392427167671916   T   T   T
  0.3774655830688640  0.7414309618450691  0.4372264129881283   T   T   T
  0.1225344169311339  0.2585690381549313  0.3127735870118717   T   T   T
 -0.0455280630410879  0.0181770438207490  0.2547986233048651   T   T   T
 -0.0099775807287488  0.7100197273500350  0.0676377213099901   T   T   T
  0.3984997965282054  0.2294305119829290  0.9338097920804608   T   T   T
  0.8694297456951727  0.2494861223491527  0.9478717362444481   T   T   T
  0.5162716233604508 -0.0510052154296606  0.0304640437391295   T   T   T
  0.1015002034717925  0.7705694880170710  0.8161902079195389   T   T   T
  0.6305702543048219  0.7505138776508485  0.8021282637555528   T   T   T
  0.2499999999999977  0.5000000000000002  0.8749999999999993   T   T   T
  0.5099775807287453  0.2899802726499642  0.6823622786900093   T   T   T
 -0.0162716233604529  0.0510052154296608  0.7195359562608710   T   T   T
  0.6542950918558611  0.7132212221676822  0.5539144355598344   T   T   T
  0.1535412208790178  0.7554777073827752  0.5786513181434149   T   T   T
  0.3883278549486030  0.2477083558445042  0.4281654619824199   T   T   T
  0.9097285472353613  0.2848977919064286  0.4756395948714143   T   T   T
  0.5455280630410864 -0.0181770438207489  0.4952013766951350   T   T   T
  0.1116721450513954  0.7522916441554963  0.3218345380175804   T   T   T
  0.5902714527646359  0.7151022080935711  0.2743604051285855   T   T   T
  0.2499999999999996  0.5000000000000003  0.3750000000000003   T   T   T
  0.8457049081441367  0.2867787778323180  0.1960855644401656   T   T   T
  0.3464587791209817  0.2445222926172251  0.1713486818565858   T   T   T
