Sr Co O 
 1.0000000000000000
     3.7803367781034716    0.0000000000000000    0.0000000000000000
     0.0000000000000000    3.9576159569417748    0.0000000000000000
     0.0000000000000000    0.0000000000000000   23.5041697323855701
 Sr  Co  O  
   6   6  13
Selective dynamics
Direct
  0.0000000000000000  0.0000000000000000 -0.0023279834400924   T   T   T
  0.0000000000000000  0.0000000000000000  0.1499923012164913   T   T   T
  0.0000000000000000  0.0000000000000000  0.3516967754457224   T   T   T
  0.0000000000000000  0.0000000000000000  0.5043939623646019   T   T   T
  0.0000000000000000  0.0000000000000000  0.6622994785536235   T   T   T
  0.0000000000000000  0.0000000000000000  0.8408223410091302   T   T   T
  0.4999999999999999  0.5000000000000004  0.0771029508485978   T   T   T
  0.4999999999999999  0.5000000000000004  0.2485232980645275   T   T   T
  0.4999999999999999  0.5000000000000004  0.4194582546098601   T   T   T
  0.4999999999999999  0.5000000000000004  0.5885601371786059   T   T   T
  0.4999999999999999  0.5000000000000004  0.7519935550528252   T   T   T
  0.4999999999999999  0.5000000000000004  0.9154135154983861   T   T   T
  0.0000000000000000  0.5000000000000004  0.0748922510320034   T   T   T
  0.4999999999999999  0.0000000000000000  0.0828225690862214   T   T   T
  0.0000000000000000  0.5000000000000004  0.2190307285451989   T   T   T
  0.4999999999999999  0.5000000000000004  0.3267494288457685   T   T   T
  0.0000000000000000  0.5000000000000004  0.4295077721675707   T   T   T
  0.4999999999999999  0.0000000000000000  0.4261073427412584   T   T   T
  0.0000000000000000  0.5000000000000004  0.5743696436993451   T   T   T
  0.4999999999999999  0.0000000000000000  0.5787348515965531   T   T   T
  0.4999999999999999  0.5000000000000004  0.6740027739164842   T   T   T
  0.4999999999999999  0.0000000000000000  0.7523108686301649   T   T   T
  0.4999999999999999  0.5000000000000004  0.8301870915825516   T   T   T
  0.0000000000000000  0.5000000000000004  0.9300996831959684   T   T   T
  0.4999999999999999  0.0000000000000000  0.9265897160955269   T   T   T
