Sr Co O 
 1.0000000000000000
    -7.7335333286046488    0.0000000000000000    0.0128380345601239
     0.0000000000000000   -7.9867298296758920   -0.0000000000000000
     3.8540392230014162    0.0000000000000000    7.7458543974600422
 Sr  Co  O  
   8   8  20
Selective dynamics
Direct
  0.0025573431322357  0.0103879756798377 -0.0003774918496914   T   T   T
  0.2555872607822852  0.0182909931060248  0.5014906520144466   T   T   T
  0.4869068458432976  0.0105660428686404  0.0001931457483878   T   T   T
  0.7508388070646662  0.0101515267288305  0.4982165729744242   T   T   T
  0.0025573431322357  0.4896120243201622 -0.0003774918496914   T   T   T
  0.2555872607822852  0.4817090068939754  0.5014906520144466   T   T   T
  0.4869068458432976  0.4894339571313596  0.0001931457483878   T   T   T
  0.7508388070646661  0.4898484732711696  0.4982165729744241   T   T   T
  0.8315840042787133  0.7500000000000004  0.2119712273146096   T   T   T
  0.1123342696138413  0.7500000000000004  0.7804746503819262   T   T   T
  0.3936823059041583  0.7500000000000004  0.2631993722970924   T   T   T
  0.6377851570549269  0.7500000000000004  0.7453893869366718   T   T   T
  0.8845029178474664  0.2500000000000002  0.2693010082064063   T   T   T
  0.1261884493239363  0.2500000000000002  0.7562584543076900   T   T   T
  0.3668015746653742  0.2500000000000002  0.2411273485285295   T   T   T
  0.6125772692274382  0.2500000000000002  0.7337186298028536   T   T   T
  0.8308667900995661  0.7500000000000004  0.0004888208573335   T   T   T
  0.8934074511094319 -0.0261464586219126  0.2551892460506900   T   T   T
  0.1328589468462989 -0.0273202005878531  0.7406695308519270   T   T   T
  0.3126903931397427  0.7500000000000004 -0.0022555049303105   T   T   T
  0.6673078336317979  0.7500000000000004  0.3099545357905882   T   T   T
  0.3517766978296228 -0.0223756866618226  0.2450427421204750   T   T   T
  0.4238377638477262  0.7500000000000004  0.5072843235094220   T   T   T
  0.8505171432864166  0.7500000000000004  0.6793146388140112   T   T   T
  0.6118332282246247 -0.0197898775508266  0.7660984572988394   T   T   T
  0.0933392237767067  0.2500000000000002  0.2268299952441959   T   T   T
  0.8934074511094319  0.5261464586219127  0.2551892460506900   T   T   T
 -0.0008057960378842  0.2500000000000002  0.5157659704846029   T   T   T
  0.3962778168837908  0.2500000000000002  0.7670053315362255   T   T   T
  0.1328589468462989  0.5273202005878531  0.7406695308519270   T   T   T
  0.2494168309728092  0.2500000000000002 -0.0017599991218489   T   T   T
  0.6308200529335706  0.2500000000000002  0.2216042969521575   T   T   T
  0.3517766978296228  0.5223756866618230  0.2450427421204750   T   T   T
  0.4933490411278130  0.2500000000000002  0.4836283645656596   T   T   T
  0.8653937243884010  0.2500000000000002  0.7776533610261652   T   T   T
  0.6118332282246247  0.5197898775508270  0.7660984572988394   T   T   T
