Sr Co O 
 1.0000000000000000
     3.8918399337261431    0.0000000000000000    0.0000000000000000
     0.0000000000000000    3.7421826459542040    0.0000000000000000
     0.0000000000000000    0.0000000000000000   24.7009900942552250
 Sr  Co  O  
   6   6  12
Selective dynamics
Direct
  0.0000000000000000  0.0000000000000000 -0.0023678434764453   T   T   T
  0.0000000000000000  0.0000000000000000  0.1588958062411218   T   T   T
  0.0000000000000000  0.0000000000000000  0.3417214236238246   T   T   T
  0.0000000000000000  0.0000000000000000  0.4846085321211380   T   T   T
  0.0000000000000000  0.0000000000000000  0.6826828248073671   T   T   T
  0.0000000000000000  0.0000000000000000  0.8347553482172446   T   T   T
  0.4999999999999999  0.5000000000000009  0.0866930788613038   T   T   T
  0.4999999999999999  0.5000000000000009  0.2455709565334484   T   T   T
  0.4999999999999999  0.5000000000000009  0.4085602929357676   T   T   T
  0.4999999999999999  0.5000000000000009  0.5803861653876758   T   T   T
  0.4999999999999999  0.5000000000000009  0.7606928540778893   T   T   T
  0.4999999999999999  0.5000000000000009  0.9197180783487513   T   T   T
  0.0000000000000000  0.5000000000000009  0.0801281192597931   T   T   T
  0.4999999999999999  0.5000000000000009  0.1724013121767101   T   T   T
  0.4999999999999999  0.5000000000000009  0.3169018164865520   T   T   T
  0.0000000000000000  0.5000000000000009  0.4188204251992769   T   T   T
  0.4999999999999999  0.0000000000000000  0.4136642637587700   T   T   T
  0.4999999999999999  0.0000000000000000  0.5494949869395154   T   T   T
  0.4999999999999999  0.5000000000000009  0.6536869466002323   T   T   T
  0.0000000000000000  0.5000000000000009  0.7547365144905375   T   T   T
  0.4999999999999999  0.0000000000000000  0.7528910438970883   T   T   T
  0.4999999999999999  0.5000000000000009  0.8428590595230341   T   T   T
  0.0000000000000000  0.5000000000000009  0.9322078531691299   T   T   T
  0.4999999999999999  0.0000000000000000  0.9436234767874658   T   T   T
