Sr Co O 
 1.0000000000000000
     3.6799878346517532    0.0000000000000000    0.0000000000000000
     0.0000000000000000    7.8871657436639531    0.0400493134462871
     0.0000000000000000    0.0840835301754595   16.1479831065043236
 Sr  Co  O  
   8   8  20
Selective dynamics
Direct
  0.0000000000000000 -0.0006668542253025  0.0073427000754285   T   T   T
  0.0000000000000000 -0.0110887133949070  0.2412838734414781   T   T   T
  0.0000000000000000 -0.0153913217264145  0.5098433196497337   T   T   T
  0.0000000000000000  0.0015751928392046  0.7426746947886607   T   T   T
  0.0000000000000000  0.4987093740098163 -0.0104339370757332   T   T   T
  0.0000000000000000  0.5031735489118947  0.2573055093195388   T   T   T
  0.0000000000000000  0.5256628941492519  0.5067051368773090   T   T   T
  0.0000000000000000  0.5089271644696427  0.7486732937108274   T   T   T
  0.5000000000000002  0.2474745218228978  0.1226635187195251   T   T   T
  0.5000000000000002  0.2538222226540240  0.3653233468948270   T   T   T
  0.5000000000000002  0.2561528970648599  0.6321253394557843   T   T   T
  0.5000000000000002  0.2545093336272372  0.8748292087959020   T   T   T
  0.5000000000000002  0.7463419869406922  0.1223257389170466   T   T   T
  0.5000000000000002  0.7394344232169339  0.3753105704074471   T   T   T
  0.5000000000000002  0.7546922760060115  0.6290873662891502   T   T   T
  0.5000000000000002  0.7485003009426090  0.8750348947768313   T   T   T
  0.5000000000000002  0.2505959935134485 -0.0002160097575703   T   T   T
  0.0000000000000000  0.3077496040261909  0.1256292093774885   T   T   T
  0.5000000000000002 -0.0045676791414400  0.1269936875388966   T   T   T
  0.5000000000000002  0.2426250749924373  0.2494385503569616   T   T   T
  0.0000000000000000  0.1873505463045516  0.3881644312967795   T   T   T
  0.0000000000000000  0.2573702952520684  0.5956107360470047   T   T   T
  0.5000000000000002  0.0171861107685159  0.6191609313077521   T   T   T
  0.5000000000000002  0.2401724714544370  0.7513830702142156   T   T   T
  0.0000000000000000  0.1982679380386619  0.8758670040141182   T   T   T
  0.5000000000000002  0.7473320098328599 -0.0028859016344300   T   T   T
  0.0000000000000000  0.6925451130747551  0.1243286582198223   T   T   T
  0.5000000000000002  0.7308595040573534  0.2526373101556912   T   T   T
  0.0000000000000000  0.7913800581198388  0.3719822815310791   T   T   T
  0.5000000000000002  0.4838194903071397  0.3926897274247863   T   T   T
  0.5000000000000002  0.7660861225732142  0.4953484747807189   T   T   T
  0.0000000000000000  0.7516258122607682  0.6279271973788872   T   T   T
  0.5000000000000002  0.4943341531263005  0.6259596379585201   T   T   T
  0.5000000000000002  0.7693819775454656  0.7565269830898979   T   T   T
  0.0000000000000000  0.8117031634217954  0.8775795842298281   T   T   T
  0.5000000000000002  0.5023525436765481  0.8707798747607165   T   T   T
