Sr Co O 
 1.0000000000000000
     3.7009651423649554    0.0000000000000000    0.0000000000000000
     0.0000000000000000   -7.9500550318006971    7.9294818025402183
     0.0000000000000000   -3.9807933942407225  -11.8999717061896693
 Sr  Co  O  
   8   8  21
Selective dynamics
Direct
  0.0000000000000000  0.0058792170597352  0.0041348084716377   T   T   T
  0.0000000000000000  0.1405422530540528  0.7619999622339183   T   T   T
  0.0000000000000000  0.2494609708820621  0.5097422150578438   T   T   T
  0.0000000000000000  0.3785124411026763  0.2412924460822058   T   T   T
  0.0000000000000000  0.5039318814657899 -0.0001463344376838   T   T   T
  0.0000000000000000  0.6179624117200230  0.7515807530700643   T   T   T
  0.0000000000000000  0.7326285265110822  0.4892693405722507   T   T   T
  0.0000000000000000  0.8674188174474072  0.2422614376622887   T   T   T
  0.5000000000000002  0.8765613135738569  0.7463352430652621   T   T   T
  0.5000000000000002 -0.0037648624081380  0.5025780698364845   T   T   T
  0.5000000000000002  0.1166698281958113  0.2439606087525921   T   T   T
  0.5000000000000002  0.2542535877187145  0.0019094202565002   T   T   T
  0.5000000000000002  0.3770134244934850  0.7528323552085151   T   T   T
  0.5000000000000002  0.5039263987500935  0.5040870730766235   T   T   T
  0.5000000000000002  0.6247414305398130  0.2470558811675131   T   T   T
  0.5000000000000002  0.7504259669224460 -0.0024914011156178   T   T   T
  0.5000000000000002  0.8211283806927702  0.8609922131993382   T   T   T
  0.5000000000000002  0.0478829456739604  0.8597296193799884   T   T   T
  0.5000000000000002  0.9332599232356940  0.6236653875658720   T   T   T
  0.5000000000000002  0.1665160356883565  0.6194084053442367   T   T   T
  0.5000000000000002  0.0586085608889762  0.3900959111457858   T   T   T
  0.0000000000000000  0.1615424374358429  0.2840136009854846   T   T   T
  0.5000000000000002  0.1955843684715830  0.1369454983997669   T   T   T
  0.0000000000000000  0.2413224799589660 -0.0025958563607257   T   T   T
  0.5000000000000002  0.4406770347421067  0.1245645205735331   T   T   T
  0.5000000000000002  0.3148925253272625  0.8761863626334984   T   T   T
  0.0000000000000000  0.3704328573991981  0.7435919075083277   T   T   T
  0.5000000000000002  0.5667482206780591  0.8694537002015195   T   T   T
  0.5000000000000002  0.4285910109742102  0.6093415449458035   T   T   T
  0.0000000000000000  0.4659506570778196  0.4775679524157291   T   T   T
  0.5000000000000002  0.7025890499554726  0.6310525008335592   T   T   T
  0.5000000000000002  0.5495568982725606  0.3780089140588682   T   T   T
  0.0000000000000000  0.6323943251575634  0.2576830042843648   T   T   T
  0.5000000000000002  0.8249921624310119  0.3898386534903738   T   T   T
  0.5000000000000002  0.6931286869672165  0.1267323966249357   T   T   T
  0.0000000000000000  0.7581465370310914 -0.0051739248318879   T   T   T
  0.5000000000000002  0.9423912913852504  0.1274957842335015   T   T   T
