Sr Co O 
 1.0000000000000000
    -3.7233739873245417    0.0000000000000000    0.0000000000000000
     0.0000000000000000    3.9794489855415218    7.8339045911428284
     0.0000000000000000   11.9800520886736646   -7.8544079776761242
 Sr  Co  O  
   8   8  20
Selective dynamics
Direct
 -0.0000000000000000 -0.0232245074119825 -0.0049431033426748   T   T   T
 -0.0000000000000000  0.3685134055574638  0.8651580579479797   T   T   T
 -0.0000000000000000  0.7290833890856935  0.7444337248328073   T   T   T
 -0.0000000000000000  0.1105276743512002  0.6249121489835827   T   T   T
 -0.0000000000000000  0.5184260593361509  0.4967433495472084   T   T   T
 -0.0000000000000000  0.8838182203358484  0.3825451184788324   T   T   T
 -0.0000000000000000  0.2653497258731577  0.2618887084571843   T   T   T
 -0.0000000000000000  0.6237330047528955  0.1314025716474494   T   T   T
  0.5000000000000003  0.3114808503663518  0.0528319904707477   T   T   T
  0.5000000000000003  0.6845327112035930  0.9375422112596741   T   T   T
  0.5000000000000003  0.0549926331792207  0.8132804950552561   T   T   T
  0.5000000000000003  0.4342048669948028  0.6910889104482072   T   T   T
  0.5000000000000003  0.8131728786395931  0.5648587433588124   T   T   T
  0.5000000000000003  0.1895086283395465  0.4344157653135727   T   T   T
  0.5000000000000003  0.5719097165528630  0.3166834818588911   T   T   T
  0.5000000000000003  0.9341884709596434  0.1907846894947473   T   T   T
 -0.0000000000000000  0.3331050309473013  0.0417511917864775   T   T   T
  0.5000000000000003  0.1761577335181500  0.9360051324757833   T   T   T
 -0.0000000000000000  0.6485936405321130  0.9498000655153438   T   T   T
  0.5000000000000003  0.5497814157113329  0.8209427435813871   T   T   T
  0.5000000000000003  0.8825268140918743  0.8732360776967414   T   T   T
  0.5000000000000003  0.9349099948307446  0.7005681429295041   T   T   T
  0.5000000000000003  0.2290012704460053  0.7534005940955617   T   T   T
 -0.0000000000000000  0.4043790717186455  0.6719459083866691   T   T   T
  0.5000000000000003  0.6068495408564273  0.6218538943157031   T   T   T
 -0.0000000000000000  0.8173951303395068  0.5689901520772318   T   T   T
  0.5000000000000003  0.7064023040433092  0.4370820080605119   T   T   T
  0.5000000000000003  0.0259937174600806  0.5079006816150934   T   T   T
 -0.0000000000000000  0.2193352354229146  0.4629031450860568   T   T   T
  0.5000000000000003  0.0727615587812254  0.3099781951697958   T   T   T
  0.5000000000000003  0.3817391310529901  0.3859802820063733   T   T   T
 -0.0000000000000000  0.5653690646476563  0.3084342362926754   T   T   T
  0.5000000000000003  0.4113904678965875  0.1715070340137217   T   T   T
  0.5000000000000003  0.7567537834244061  0.2461270333621408   T   T   T
 -0.0000000000000000  1.0029532930578819  0.1666296983689900   T   T   T
  0.5000000000000003  0.8043842701455801  0.0613368954985977   T   T   T
