Sr Co O 
 1.0000000000000000
    -7.8425118927780995    0.0134262001071410   -0.0000000000000000
    -3.9212559463890497    0.0067131000535705   -7.6153962205472636
    -3.9078308334433647   -7.8359049453806486    0.0000000000000000
 Sr  Co  O  
   8   8  21
Selective dynamics
Direct
  0.0009204391178464 -0.0094186226821410 -0.0037388847390950   T   T   T
  0.2572704506667503  0.4981812810064335  0.0060407094952989   T   T   T
  0.5054517316731837  0.0018187189935665  0.0060407094952989   T   T   T
  0.7415018164357063  0.5094186226821412 -0.0037388847390950   T   T   T
  0.4990795608821534  0.5094186226821412  0.5037388847390950   T   T   T
  0.7584981835642947 -0.0094186226821410  0.5037388847390950   T   T   T
 -0.0054517316731834  0.4981812810064335  0.4939592905047015   T   T   T
  0.2427295493332500  0.0018187189935665  0.4939592905047015   T   T   T
 -0.0062685301666563  0.7625370603333130  0.7500000000000001   T   T   T
  0.2500000000000002  0.2499999999999999  0.7500000000000001   T   T   T
  0.5062685301666581  0.7374629396666875  0.7500000000000000   T   T   T
  0.7500000000000019  0.2499999999999999  0.7500000000000000   T   T   T
  0.4958884042627507  0.2499999999999999  0.2471974132945552   T   T   T
  0.7500000000000008  0.7500000000000000  0.2500000000000001   T   T   T
  0.0041115957372495  0.2500000000000000  0.2528025867054448   T   T   T
  0.2500000000000005  0.7500000000000000  0.2500000000000001   T   T   T
  0.8691618410871129  0.0116763178257779  0.7500000000000000   T   T   T
  0.2500000000000008  0.7500000000000000  0.7500000000000001   T   T   T
  0.9010948621072302  0.7232011609211657 -0.0203987366957647   T   T   T
  0.4660972841751873  0.2499999999999999  0.7763783473283827   T   T   T
  0.1075696377497555  0.2500000000000000 -0.0167874896551431   T   T   T
  0.7500000000000014  0.7500000000000000  0.7500000000000004   T   T   T
  0.3742960230283940  0.7767988390788354 -0.0203987366957647   T   T   T
  0.6308381589128906  0.4883236821742223  0.7500000000000000   T   T   T
  0.0339027158248130  0.2499999999999999  0.7236216526716173   T   T   T
  0.6520009631305029  0.2499999999999999  0.0021904241695619   T   T   T
  0.4144881281127727  0.4844068106934266  0.2490341229236094   T   T   T
  0.3924303622502446  0.2499999999999999  0.5167874896551434   T   T   T
  0.6488949388061993  0.0155931893065735  0.2490341229236094   T   T   T
  0.0109235318908554  0.7281529362182910  0.2499999999999999   T   T   T
  0.5989051378927717  0.7767988390788354  0.5203987366957645   T   T   T
  0.8511050611938037  0.4844068106934266  0.2509658770763910   T   T   T
  0.2500000000000004  0.2500000000000000  0.2499999999999999   T   T   T
  0.8479990368694976  0.2499999999999999  0.4978095758304383   T   T   T
  0.0855118718872284  0.0155931893065735  0.2509658770763907   T   T   T
  0.4890764681091460  0.7718470637817093  0.2500000000000001   T   T   T
  0.1257039769716055  0.7232011609211652  0.5203987366957645   T   T   T
