Sr Co O 
 1.0000000000000000
    -7.6549433271116767    0.0177553607836700    0.0177553607836695
    -3.8094168695538331    0.0232391778764576   -7.9041565601477108
    -3.8094168695538322   -7.9041565601477464    0.0232391778764573
 Sr  Co  O  
   8   8  21
Selective dynamics
Direct
 -0.0068284793457682  0.0166298853364768  0.0166298853364768   T   T   T
  0.2617093556450868  0.4833333993958382  0.0142678845253076   T   T   T
  0.4805285436777307  0.0148046867657998  0.0148046867657998   T   T   T
  0.7479895772701159  0.4894640693599545  0.0075409739770255   T   T   T
  0.5147282749039339  0.4898106732189201  0.4898106732189198   T   T   T
  0.7479895772701159  0.0075409739770255  0.4894640693599543   T   T   T
  0.0006623155207668  0.4815025955261472  0.4815025955261470   T   T   T
  0.2617093556450873  0.0142678845253076  0.4833333993958371   T   T   T
  0.0098661916160251  0.7073372806978634  0.7073372806978607   T   T   T
  0.2558513467094420  0.2419478475563734  0.7517747783948991   T   T   T
  0.5010120908991349  0.7571179493341492  0.7571179493341490   T   T   T
  0.7382087978648368  0.2708438646676849  0.7501514301934356   T   T   T
  0.5003515873171416  0.2525221972673342  0.2525221972673341   T   T   T
  0.7382087978648370  0.7501514301934343  0.2708438646676852   T   T   T
  0.0006022069287392  0.2486775625559532  0.2486775625559531   T   T   T
  0.2558513467094418  0.7517747783949003  0.2419478475563727   T   T   T
  0.1492657833659821  0.5081614757817788  0.7740985772566737   T   T   T
  0.5420767587558177  0.2097362993472262  0.7505735558001226   T   T   T
  0.1336506140951491  0.2433230922220888 -0.0108684389499873   T   T   T
  0.3405327059653523 -0.0143353834059267  0.7476469507535766   T   T   T
  0.7329722953655599  0.7911807281442641  0.7911807281442675   T   T   T
  0.3405327059653536  0.7476469507535760 -0.0143353834059268   T   T   T
  0.6041789235916017  0.5171412128541060  0.7471247951323897   T   T   T
 -0.0187108988228304  0.2527333736404842  0.7478843717771884   T   T   T
  0.6322000451157883  0.2448131999020944 -0.0038722705692072   T   T   T
  0.3674611385442615  0.5160510451246914  0.2567053327483760   T   T   T
  0.7481424204249120  0.2510694503989059  0.2510694503989058   T   T   T
  0.3674611385442608  0.2567053327483768  0.5160510451246908   T   T   T
  0.6322000451157882 -0.0038722705692072  0.2448131999020949   T   T   T
 -0.0187108988228304  0.7478843717771877  0.2527333736404846   T   T   T
  0.6041789235916042  0.7471247951323887  0.5171412128541049   T   T   T
  0.8790505542276210  0.5017859798587015  0.2387706213541073   T   T   T
  0.2510326886330055  0.2525489209610794  0.2525489209610792   T   T   T
  0.8790505542276199  0.2387706213541075  0.5017859798587020   T   T   T
  0.1336506140951491 -0.0108684389499873  0.2433230922220886   T   T   T
  0.5420767587558183  0.7505735558001219  0.2097362993472264   T   T   T
  0.1492657833659827  0.7740985772566742  0.5081614757817776   T   T   T
