Sr Co O 
 1.0000000000000000
    -3.8473492406645051    4.1084657446436150    3.8041252267419310
     3.8117644918514402   -0.0877120272877428    7.6607883048446492
     3.7992570608598561    8.2554148230298701   -0.0809165765679019
 Sr  Co  O  
   8   8  20
Selective dynamics
Direct
  0.0000000000000000  0.0000000000000000  0.0000000000000000   T   T   T
  0.2471409373316667  0.3918911794118575  0.8496550133791624   T   T   T
  0.4656591606896777  0.7682496882736491  0.7356299142538966   T   T   T
  0.7386191426769898  0.1301216112024848  0.6147957716771740   T   T   T
 -0.0000000000000001  0.5000000000000002  0.5000000000000003   T   T   T
  0.2613808573230112  0.8698783887975171  0.3852042283228267   T   T   T
  0.5343408393103235  0.2317503117263526  0.2643700857461034   T   T   T
  0.7528590626683338  0.6081088205881439  0.1503449866208366   T   T   T
 -0.0052526787803405  0.2320319570593830  0.2677090012820122   T   T   T
  0.2855712094916656  0.6337493813435994  0.1383792876263967   T   T   T
  0.5000000000000003  0.0000000000000007 -0.0000000000000002   T   T   T
  0.7144287905083366  0.3662506186564014  0.8616207123736054   T   T   T
  0.0052526787803387  0.7679680429406165  0.7322909987179885   T   T   T
  0.2464585411404981  0.1393964450957894  0.6209004590917313   T   T   T
  0.5000000000000001  0.5000000000000007  0.4999999999999999   T   T   T
  0.7535414588595033  0.8606035549042118  0.3790995409082683   T   T   T
  0.9073613154255865  0.0299662158342842  0.3024457728266033   T   T   T
  0.9687728938897486  0.3058695586057588  0.0787692058422123   T   T   T
  0.5000000000000000  0.5000000000000003 -0.0000000000000000   T   T   T
  0.0312271061102542  0.6941304413942427  0.9212307941577861   T   T   T
  0.3548911288179994  0.8339289969822316  0.0311720100685608   T   T   T
  0.3990865015202326  0.0790911816242777  0.8303991060254592   T   T   T
  0.6451088711820022  0.1660710030177696  0.9688279899314388   T   T   T
 -0.0129735100990066  0.2962511849326771  0.7473262957639674   T   T   T
  0.6151549732466185  0.4626406355640185  0.6902327731609426   T   T   T
  0.2314409276202859  0.6245667854641130  0.6182346999880716   T   T   T
  0.8380759373905363  0.8058775155877271  0.6045942414289809   T   T   T
  0.0926386845744122  0.9700337841657182  0.6975542271733977   T   T   T
  0.5000000000000007  0.0000000000000007  0.4999999999999995   T   T   T
  0.1619240626094645  0.1941224844122734  0.3954057585710187   T   T   T
  0.3884024941323735  0.3133566907332205  0.5625477439259401   T   T   T
  0.7685590723797155  0.3754332145358883  0.3817653000119282   T   T   T
  0.3848450267533813  0.5373593644359836  0.3097672268390567   T   T   T
  0.6115975058676268  0.6866433092667804  0.4374522560740607   T   T   T
  0.0129735100990058  0.7037488150673235  0.2526737042360324   T   T   T
  0.6009134984797696  0.9209088183757254  0.1696008939745394   T   T   T
