Sr Co O 
 1.0000000000000000
    -3.7667173803964151    0.0000000000000000    0.0000000000000000
     0.0000000000000000   -7.9479477402001528   -0.0075729773390783
     0.0000000000000000    3.9890287128533699   15.8123592708921983
 Sr  Co  O  
   8   8  21
Selective dynamics
Direct
 -0.0000000000000000  0.0157251363502071 -0.0023961433849352   T   T   T
 -0.0000000000000000  0.1233603447850212  0.2319717868518717   T   T   T
 -0.0000000000000000  0.2660959248872766  0.5153645956017924   T   T   T
 -0.0000000000000000  0.3747622379551419  0.7522310960418696   T   T   T
 -0.0000000000000000  0.4907798036296422 -0.0004694555889798   T   T   T
 -0.0000000000000000  0.6005086653274687  0.2422848594707316   T   T   T
 -0.0000000000000000  0.7421692085125794  0.5078847335441797   T   T   T
 -0.0000000000000000  0.8830235003016458  0.7486478422349000   T   T   T
  0.5000000000000000  0.8160485928041372  0.1295316105959683   T   T   T
  0.5000000000000000  0.9121475092894312  0.3734213978479091   T   T   T
  0.5000000000000000  0.0670736410279610  0.6277009796864397   T   T   T
  0.5000000000000000  0.1902715970094191  0.8754623172190374   T   T   T
  0.5000000000000000  0.3112895735643305  0.1211669123154152   T   T   T
  0.5000000000000000  0.4215280604056371  0.3733326361662046   T   T   T
  0.5000000000000000  0.5663916164883022  0.6272000557129808   T   T   T
  0.5000000000000000  0.6904625150824845  0.8703551960934766   T   T   T
 -0.0000000000000000  0.8049799144295218  0.1106809708827147   T   T   T
  0.5000000000000000  0.0423676261907214  0.1137164241857276   T   T   T
  0.5000000000000000  0.9250010108408879  0.2665670675506028   T   T   T
  0.5000000000000000  0.0277037708114946  0.4797300930812546   T   T   T
 -0.0000000000000000  0.0596019184474401  0.6202019369259935   T   T   T
  0.5000000000000000  0.3164155540622813  0.6319407888362226   T   T   T
  0.5000000000000000  0.1227807999767039  0.7550339559413315   T   T   T
 -0.0000000000000000  0.1922326121347325  0.8751091870508034   T   T   T
  0.5000000000000000  0.4676201998770597  0.8821449374445143   T   T   T
  0.5000000000000000  0.2594677871448796 -0.0024546414967897   T   T   T
 -0.0000000000000000  0.3153737690469030  0.1249616107787792   T   T   T
  0.5000000000000000  0.5816127957379144  0.1289107360799704   T   T   T
  0.5000000000000000  0.3669098683889230  0.2543647860398709   T   T   T
 -0.0000000000000000  0.3467184950603882  0.3723916490280281   T   T   T
  0.5000000000000000  0.6863142428524668  0.3704454498209167   T   T   T
  0.5000000000000000  0.4863497800855069  0.4900388016036513   T   T   T
 -0.0000000000000000  0.5670222017788815  0.6245827154315925   T   T   T
  0.5000000000000000  0.8147641930704588  0.6165058217796955   T   T   T
  0.5000000000000000  0.6399267598519937  0.7529760813665183   T   T   T
 -0.0000000000000000  0.7045507052526065  0.9030893606051352   T   T   T
  0.5000000000000000  0.9256482753498306  0.8853719423031631   T   T   T
