Sr Co O 
 1.0000000000000000
     4.0009951270252504    3.9127927268738296    0.0000000000000000
     4.0009951270252504   -3.9127927268738296    0.0000000000000000
     0.0000000000000000    0.0000000000000000  -14.9618614127713911
 Sr  Co  O  
   8   8  20
Selective dynamics
Direct
 -0.0042093815077295 -0.0042093815077295 -0.0000000000000000   T   T   T
 -0.0032596523835322 -0.0177208732720282  0.7452108961789657   T   T   T
 -0.0132696206589947 -0.0132696206589947  0.5000000000000001   T   T   T
 -0.0177208732720282 -0.0032596523835322  0.2547891038210349   T   T   T
  0.5042093815077284  0.5042093815077300 -0.0000000000000000   T   T   T
  0.5032596523835309  0.5177208732720285  0.7452108961789657   T   T   T
  0.5132696206589931  0.5132696206589946  0.5000000000000001   T   T   T
  0.5177208732720269  0.5032596523835325  0.2547891038210349   T   T   T
  0.4796493405029349 -0.0113394694359838  0.8730504638756349   T   T   T
  0.5086850280890195 -0.0008229922905116  0.6230401279569528   T   T   T
  0.5008229922905106 -0.0086850280890201  0.3769598720430484   T   T   T
  0.5113394694359835  0.0203506594970646  0.1269495361243656   T   T   T
  0.0203506594970639  0.5113394694359841  0.8730504638756349   T   T   T
 -0.0086850280890206  0.5008229922905120  0.6230401279569526   T   T   T
 -0.0008229922905122  0.5086850280890203  0.3769598720430483   T   T   T
 -0.0113394694359847  0.4796493405029357  0.1269495361243656   T   T   T
  0.5265681154617220 -0.0265681154617231 -0.0000000000000000   T   T   T
  0.2499999999999987  0.7500000000000009  0.8683716126211963   T   T   T
  0.2499999999999994  0.2500000000000002  0.8891871132937755   T   T   T
  0.4867958653869880  0.0578760137877625  0.7468533768809112   T   T   T
  0.2499999999999987  0.7500000000000009  0.6292026285216192   T   T   T
  0.4443586908398473  0.0556413091601524  0.5000000000000001   T   T   T
  0.2499999999999987  0.7500000000000009  0.3822947398646015   T   T   T
  0.4421239862122373  0.0132041346130115  0.2531466231190896   T   T   T
  0.2499999999999994  0.2500000000000002  0.1108128867062253   T   T   T
 -0.0265681154617230  0.5265681154617234  0.0000000000000000   T   T   T
  0.7499999999999986  0.7500000000000010  0.8581639433893895   T   T   T
  0.0132041346130108  0.4421239862122380  0.7468533768809112   T   T   T
  0.7499999999999993  0.2500000000000002  0.6177052601353988   T   T   T
  0.7499999999999986  0.7500000000000010  0.6185865445119886   T   T   T
  0.0556413091601515  0.4443586908398482  0.5000000000000001   T   T   T
  0.7499999999999993  0.2500000000000002  0.3707973714783811   T   T   T
  0.7499999999999986  0.7500000000000010  0.3814134554880118   T   T   T
  0.0578760137877616  0.4867958653869888  0.2531466231190895   T   T   T
  0.7499999999999993  0.2500000000000002  0.1316283873788046   T   T   T
  0.7499999999999986  0.7500000000000010  0.1418360566106117   T   T   T
