Sr Co O 
 1.0000000000000000
     3.9539932245749636   -0.0000000000000000    3.9539932245749645
    -0.0203598914069533   -7.7322735413868022    0.0203598914069533
     7.9806237952037860    0.0391737439130565   -7.9806237952037851
 Sr  Co  O  
   8   8  21
Selective dynamics
Direct
 -0.0542297091062293 -0.0000000000000000 -0.0000000000000000   T   T   T
  0.5130953636673259  0.0090523537880914  0.7284129229306932   T   T   T
  0.0102516782059436 -0.0000000000000000  0.4999999999999994   T   T   T
  0.5130953636673267 -0.0090523537880914  0.2715870770693066   T   T   T
 -0.0124592906277721  0.5000000000000007 -0.0000000000000000   T   T   T
  0.5250065393515406  0.5082046080453435  0.7386189267459730   T   T   T
  0.0176745020846574  0.5000000000000004  0.4999999999999994   T   T   T
  0.5250065393515416  0.4917953919546577  0.2613810732540262   T   T   T
  0.4958694429619045  0.7381823216343832  0.0227096939344311   T   T   T
  0.0137445704986272  0.7539169195167552  0.7276147428602392   T   T   T
  0.5148351427015081  0.7468139382511390  0.4944042176541276   T   T   T
  0.0099884659972640  0.7510151016364335  0.2451605378547080   T   T   T
  0.4958694429619045  0.2618176783656180 -0.0227096939344306   T   T   T
  0.0099884659972647  0.2489848983635665  0.7548394621452914   T   T   T
  0.5148351427015081  0.2531860617488623  0.5055957823458718   T   T   T
  0.0137445704986281  0.2460830804832454  0.2723852571397596   T   T   T
  0.2115557749754730  0.7720805075113231  0.0916424905560385   T   T   T
  0.6367636430867950  0.8095892825204266  0.8924136628234119   T   T   T
  0.7514781530210151  0.7565506264241411  0.6291447450266715   T   T   T
  0.0409033705925041 -0.0243684972782185  0.7648360190944204   T   T   T
  0.2650558277249808  0.7367326375760209  0.6195869967341044   T   T   T
  0.2650835100494081  0.7334315723942267  0.3511787920282327   T   T   T
  0.4892984148606256  0.0000000000000000  0.4999999999999997   T   T   T
  0.7811791828635273  0.7523649447443226  0.3801049739482286   T   T   T
  0.7372187791201363  0.7578471148060955  0.1390870053014669   T   T   T
  0.0409033705925052  0.0243684972782184  0.2351639809055787   T   T   T
  0.2115557749754725  0.2279194924886783  0.9083575094439617   T   T   T
  0.4711358492980455  0.5000000000000007  0.0000000000000002   T   T   T
  0.7372187791201341  0.2421528851939061  0.8609129946985326   T   T   T
  0.7811791828635274  0.2476350552556782  0.6198950260517715   T   T   T
  0.0135997083777126  0.5360218091406518  0.7813008202410996   T   T   T
  0.2650835100494068  0.2665684276057749  0.6488212079717666   T   T   T
  0.2650558277249811  0.2632673624239802  0.3804130032658950   T   T   T
  0.5275736908839490  0.5000000000000008  0.5000000000000001   T   T   T
  0.7514781530210151  0.2434493735758602  0.3708552549733284   T   T   T
  0.6367636430867978  0.1904107174795743  0.1075863371765871   T   T   T
  0.0135997083777140  0.4639781908593493  0.2186991797588999   T   T   T
