Sr Co O 
 1.0000000000000000
     3.9275125292614965   -4.0047998935981184   -0.0006497602653194
    -3.8798097658535884    0.0461549382196606   -7.6225939750987672
     7.9060449904632897    8.0608322616448476   -0.1183001829018095
 Sr  Co  O  
   8   8  21
Selective dynamics
Direct
 -0.0287745434598460 -0.0052897795581181 -0.0068312589188905   T   T   T
  0.7697284307552507  0.4844080098688150  0.8691168962256253   T   T   T
  0.5056355259192308 -0.0174590535883737  0.7290717239925463   T   T   T
  0.2667032695459945  0.4976896882403038  0.6090687372543165   T   T   T
  0.0047894028605409  0.0012969890636300  0.5019273829091884   T   T   T
  0.7649088918634707  0.5219153004829296  0.3910728747719642   T   T   T
  0.4935231663667567  0.0104113497712660  0.2607259077275792   T   T   T
  0.2649282658445371  0.5317179452685059  0.1446271917639269   T   T   T
  0.8692575378434392  0.7475276857247226  0.1892960664944605   T   T   T
  0.6312004727072946  0.2646477553188325  0.0877706160477358   T   T   T
  0.3867174693720225  0.7130656654604975  0.9191571102898085   T   T   T
  0.1372352431962586  0.2428744069057469  0.7884777753259047   T   T   T
  0.8900764342982015  0.7447242527227724  0.6886666995628699   T   T   T
  0.6339936666771382  0.2504072214614349  0.5574343070188852   T   T   T
  0.3843333599706069  0.7635634685284716  0.4420218712216107   T   T   T
  0.1270314655572955  0.2695554475129298  0.3169338783334313   T   T   T
  0.5975975977158896  0.7986059197754563  0.0642931147789009   T   T   T
  0.0934680535183018  0.7916276391663233  0.0869459497326604   T   T   T
  0.7108217310183609  0.5021842256915791  0.1056394869662059   T   T   T
  0.7114135619035477  0.1812332651675255  0.9374478898185619   T   T   T
  0.1495348528250307  0.7290833433674662  0.8192750778467174   T   T   T
  0.6467086462855495  0.7334601449443052  0.8066174111911374   T   T   T
  0.2377307109622711  0.4620022696293515  0.9111200992199886   T   T   T
  0.8844841462648437  0.2489211512118664  0.6867100974915551   T   T   T
  0.4030404297964590  0.2629483221258350  0.6935328732378062   T   T   T
  0.0561792704028595  0.0168870279973458  0.7789772143182786   T   T   T
  0.6471222019032031  0.7641757068539206  0.5615358009566297   T   T   T
  0.1272549774192320  0.7506105005796972  0.5718734020085966   T   T   T
  0.7492453183902184  0.4871276825290967  0.6076241664170722   T   T   T
  0.3500618220559240  0.2351405200161346  0.4182877577311035   T   T   T
  0.8753518153702297  0.2365175297174542  0.4279059875403657   T   T   T
  0.4962011569262656  0.0065854673846367  0.5011961235042270   T   T   T
  0.1220430631055980  0.7661282828454835  0.3170186263762678   T   T   T
  0.6569083609813918  0.7828767375368606  0.3042315743178395   T   T   T
  0.2825547730530561  0.5205135849496366  0.3707875066089702   T   T   T
  0.8782545017956328  0.2318346018059340  0.1891019795656768   T   T   T
  0.3477353386690286  0.2204798932289668  0.1638401561683497   T   T   T
