Sr Co O 
 1.0000000000000000
    -3.7427940614724244    0.0000000000000000    0.0000000000000000
     0.0000000000000000   -7.6993517394447499    0.0000000000000000
     0.0000000000000000    3.8496758697223750   16.5696556673169155
 Sr  Co  O  
   8   8  20
Selective dynamics
Direct
 -0.0000000000000000 -0.0095566803059064 -0.0132468947483577   T   T   T
  0.0000000000000000  0.1459094128322764  0.2683014448777192   T   T   T
  0.0000000000000000  0.2484544450889569  0.5058218999981350   T   T   T
 -0.0000000000000000  0.3754398519278982  0.7410610827010889   T   T   T
 -0.0000000000000000  0.4963097855575488 -0.0132468947483577   T   T   T
 -0.0000000000000000  0.6223920320454425  0.2683014448777192   T   T   T
 -0.0000000000000000  0.7573674549091765  0.5058218999981351   T   T   T
 -0.0000000000000000  0.8656212307731890  0.7410610827010889   T   T   T
  0.5000000000000002  0.8146174354455697  0.1292348708911394   T   T   T
  0.5000000000000002  0.9413410013656621  0.3826820027313240   T   T   T
  0.5000000000000002  0.0616444431225418  0.6232888862450846   T   T   T
  0.5000000000000002  0.1870990725566485  0.8741981451132990   T   T   T
  0.5000000000000002  0.3071196041783781  0.1142392083567563   T   T   T
  0.5000000000000002  0.4457056843295134  0.3914113686590279   T   T   T
  0.5000000000000002  0.5629309415702897  0.6258618831405806   T   T   T
  0.5000000000000002  0.6827953124964594  0.8655906249929207   T   T   T
  0.5000000000000002  0.7617755922641390  0.0235511845282778   T   T   T
  0.5000000000000002  0.8670564839462604  0.2341129678925207   T   T   T
 -0.0000000000000000  0.9356830054609461  0.3713660109218920   T   T   T
  0.5000000000000002  0.1938366574665452  0.3721573022107143   T   T   T
  0.5000000000000002  0.0000951792714607  0.5001903585429225   T   T   T
 -0.0000000000000000  0.0656983736541050  0.6313967473082109   T   T   T
  0.5000000000000002  0.3080489885067461  0.6271409269420735   T   T   T
  0.5000000000000002  0.1331711449484391  0.7663422898968801   T   T   T
  0.5000000000000002  0.4259878397797663  0.8808009901931247   T   T   T
  0.5000000000000002  0.2469965748672256 -0.0060068502655487   T   T   T
 -0.0000000000000000  0.3033027247227513  0.1066054494455027   T   T   T
  0.5000000000000002  0.3612994118520036  0.2225988237040073   T   T   T
 -0.0000000000000000  0.4356572043897657  0.3713144087795325   T   T   T
  0.5000000000000002  0.6783206447441682  0.3721573022107141   T   T   T
  0.5000000000000002  0.5010859483580017  0.5021718967160045   T   T   T
 -0.0000000000000000  0.5624256270678608  0.6248512541357228   T   T   T
  0.5000000000000002  0.8190919384353257  0.6271409269420729   T   T   T
  0.5000000000000002  0.6251314765328473  0.7502629530656959   T   T   T
 -0.0000000000000000  0.6903309770450642  0.8806619540901304   T   T   T
  0.5000000000000002  0.9548131504133571  0.8808009901931247   T   T   T
