Sr Co O 
 1.0000000000000000
     3.7107406308720088    0.0000000000000000    0.0000000000000000
     0.0000000000000000   -8.0511451255179285    7.9426898573573563
     0.0000000000000000   -4.0114578232273876  -11.8997973111023061
 Sr  Co  O  
   8   8  21
Selective dynamics
Direct
  0.0000000000000000  0.0014997121644616  0.0067088907112929   T   T   T
  0.0000000000000000  0.1507377689739551  0.7596881142587448   T   T   T
  0.0000000000000000  0.2618147309245360  0.5077025724966338   T   T   T
  0.0000000000000000  0.3794972351033559  0.2452708071372457   T   T   T
  0.0000000000000000  0.5032459946398236  0.0002422123214804   T   T   T
  0.0000000000000000  0.6128556074856211  0.7497270288492097   T   T   T
  0.0000000000000000  0.7298286252741507  0.4801832944441948   T   T   T
  0.0000000000000000  0.8635365417607134  0.2464523965643960   T   T   T
  0.5000000000000000  0.8698101830419850  0.7590934068728523   T   T   T
  0.5000000000000000  0.0001255563806041  0.5030498856703730   T   T   T
  0.5000000000000000  0.1242138962232243  0.2514221077116708   T   T   T
  0.5000000000000000  0.2532761552852993 -0.0007976150524012   T   T   T
  0.5000000000000000  0.3820327556178857  0.7527874635057297   T   T   T
  0.5000000000000000  0.4971868198926503  0.4946675053365387   T   T   T
  0.5000000000000000  0.6179748489008710  0.2434598966254720   T   T   T
  0.5000000000000000  0.7491386166311245  0.0026171082078108   T   T   T
  0.5000000000000000  0.8216580078219592  0.8753270875905601   T   T   T
  0.5000000000000000  0.0422630333557816  0.8345332668603411   T   T   T
  0.0000000000000000 -0.0221767123830938  0.5465915161157395   T   T   T
  0.5000000000000000  0.1692208205784738  0.6122557335426201   T   T   T
  0.5000000000000000  0.0678430433996109  0.3674165133809147   T   T   T
  0.5000000000000000  0.2941319437089570  0.3621796316802929   T   T   T
  0.5000000000000000  0.1757231164646363  0.1313267412359959   T   T   T
  0.0000000000000000  0.2327439231308569 -0.0040162810658323   T   T   T
  0.5000000000000000  0.4322862185141795  0.1226160098548798   T   T   T
  0.5000000000000000  0.3171917388837962  0.8751029178085263   T   T   T
  0.0000000000000000  0.3726812632632157  0.7433566471816112   T   T   T
  0.5000000000000000  0.5681618999115858  0.8736811670751420   T   T   T
  0.5000000000000000  0.4421215439551897  0.6228892513652809   T   T   T
  0.0000000000000000  0.5019035218879582  0.4997846320859821   T   T   T
  0.5000000000000000  0.7250736621910527  0.6260061331537576   T   T   T
  0.5000000000000000  0.5570669257798851  0.3701753832029461   T   T   T
  0.0000000000000000  0.6290588824525867  0.2513518975834624   T   T   T
  0.5000000000000000  0.8327034303597404  0.3910322973686486   T   T   T
  0.5000000000000000  0.6911806951209193  0.1289906514478711   T   T   T
  0.0000000000000000  0.7611675289717921  0.0038090452616259   T   T   T
  0.5000000000000000  0.9537205067146367  0.1383147120033708   T   T   T
