Sr Co O 
 1.0000000000000000
     0.0206555930772358    7.6240463643515195   -0.0992979445204854
     8.0568824384265199    0.0221522616696454    0.0178975552000592
    -4.0567133681949104   -3.7242920378994353   -7.8531505358980516
 Sr  Co  O  
   8   8  20
Selective dynamics
Direct
  0.0023281288992670 -0.0213276022243845  0.0065470983391470   T   T   T
  0.7617746999863613  0.7458312658928965  0.5109887021380367   T   T   T
  0.4941906147477673  0.5173005301585356 -0.0073427267525717   T   T   T
  0.2587571999370581  0.2625875045844063  0.5000271330641796   T   T   T
  0.5031532767514303 -0.0233987476420910  0.0086205950213846   T   T   T
  0.2790740818354157  0.7531017602221074  0.5125442092776402   T   T   T
  0.0028608553176792  0.5220537387478591 -0.0137260542715775   T   T   T
  0.7545369140681879  0.2435028489006859  0.5096729221604603   T   T   T
  0.1537508552949843  0.1089362847980881  0.7292541127146411   T   T   T
  0.8740162236559389  0.8882443018651918  0.2576295709142328   T   T   T
  0.6360181766427117  0.6265827255119157  0.7545919051296104   T   T   T
  0.4163280529407180  0.3916410847117636  0.2698734372234903   T   T   T
  0.5971153414470071  0.1198857614367561  0.7419059334691523   T   T   T
  0.3716160263513270  0.8623405393910206  0.2527710555676022   T   T   T
  0.1329585558107902  0.6345072792156806  0.7484691294871419   T   T   T
  0.8810314987460883  0.3613956866896871  0.2557601269163648   T   T   T
  0.1272816884516202  0.9160451021179402  0.7765799570990050   T   T   T
 -0.0309942405711279 -0.0129999160598741  0.5124690561641494   T   T   T
  0.6334794197935942  0.8459750999826851  0.2506120910538910   T   T   T
  0.7619369048656575  0.7440697758321493  0.0031683178610411   T   T   T
  0.6466474159419059  0.3507074474815958  0.7610861084218169   T   T   T
  0.3844665483600801  0.6342422913759806  0.7584733326745852   T   T   T
  0.4988479988430323  0.5017800989743829  0.5079369218115001   T   T   T
  0.3581924792748216  0.1542981719622967  0.2304625655084654   T   T   T
 -0.0719804735330597  0.3017676235975385  0.0755687541756370   T   T   T
  0.6560781702453964  0.9103404703605567  0.7631629401377805   T   T   T
  0.4189560080609442  0.1654465408324645  0.8469653404015089   T   T   T
  0.4977574813059031  0.0018964504849996  0.4987108511172219   T   T   T
  0.3293730726011226  0.5838405328104732  0.2327095465861731   T   T   T
  0.1158552923828188  0.8663555544613677  0.2692487062965446   T   T   T
  0.2518801200237679  0.7531235680394671  0.0084958742471231   T   T   T
  0.1268687504377505  0.3433420745167030  0.7484375627097359   T   T   T
  0.8796952104917800  0.6122957341653691  0.7338942651543068   T   T   T
  0.0331312875917650  0.5251752492268260  0.4818248626127575   T   T   T
  0.8736200013588453  0.1364455801524087  0.2707959980615190   T   T   T
  0.6393963423973266  0.4226675212830955  0.2318098386979061   T   T   T
