Sr Co O 
 1.0000000000000000
     3.6747008898103499    0.0000000000000000    0.0000000000000000
     0.0000000000000000   -8.3422582615291123    7.8638856680443947
     0.0000000000000000   -4.1328780183884710  -11.7633977227191053
 Sr  Co  O  
   8   8  20
Selective dynamics
Direct
  0.0000000000000000  0.0182035043133091  0.0117157488046709   T   T   T
  0.0000000000000000  0.1157141272444221  0.7652567814815603   T   T   T
  0.0000000000000000  0.2406310040993045  0.4977875639059581   T   T   T
  0.0000000000000000  0.3707646249383680  0.2649216874231800   T   T   T
  0.0000000000000000  0.5273288130590994  0.0165952818043834   T   T   T
  0.0000000000000000  0.6003108617875595  0.7411039254329811   T   T   T
  0.0000000000000000  0.7033515371053615  0.4868812465444577   T   T   T
  0.0000000000000000  0.8722372497031858  0.2375853137935346   T   T   T
  0.4999999999999997  0.8617185120591296  0.7282137828254337   T   T   T
  0.4999999999999997 -0.0176927200105815  0.4899421912809442   T   T   T
  0.4999999999999997  0.1201051142191237  0.2514861781687055   T   T   T
  0.4999999999999997  0.2749619454363056  0.0293545990609450   T   T   T
  0.4999999999999997  0.3898470094827101  0.7675003265080490   T   T   T
  0.4999999999999997  0.4761963179610728  0.4992436276371922   T   T   T
  0.4999999999999997  0.6224834552418151  0.2530894772527951   T   T   T
  0.4999999999999997  0.7571918542439637 -0.0006299007195849   T   T   T
  0.0000000000000000  0.8766305083145393  0.6914355964939083   T   T   T
  0.4999999999999997  0.0140678090787042  0.8544346394836488   T   T   T
  0.4999999999999997  1.1145384279795618  0.6258948126402271   T   T   T
  0.4999999999999997  0.0425310280584260  0.3783558077201202   T   T   T
  0.0000000000000000  0.1145087053958631  0.2527509647346891   T   T   T
  0.4999999999999997  0.2960870782088624  0.3804553908307048   T   T   T
  0.4999999999999997  0.1917611258343312  0.1285934868179140   T   T   T
  0.0000000000000000  0.2526714408528565 -0.0200164826592167   T   T   T
  0.4999999999999997  0.4502617125333925  0.1133906570697132   T   T   T
  0.0000000000000000  0.3521565902348234  0.7860853126841723   T   T   T
  0.4999999999999997  0.5672742104333309  0.8815141411003631   T   T   T
  0.4999999999999997  0.4054618062708715  0.6248413216716630   T   T   T
  0.0000000000000000  0.4857701141636730  0.5078298039721845   T   T   T
  0.4999999999999997  0.6867119989775293  0.6481868521819131   T   T   T
  0.4999999999999997  0.5410001497258261  0.3706368687334670   T   T   T
  0.0000000000000000  0.6365837867243295  0.2560662866737751   T   T   T
  0.4999999999999997  0.8146739037059272  0.4150863411397447   T   T   T
  0.4999999999999997  0.7051272563044056  0.1283343350940996   T   T   T
  0.0000000000000000  0.7717550355266019 -0.0501458297711216   T   T   T
  0.4999999999999997  0.9345738351792300  0.1112210228407977   T   T   T
