Sr Co O 
 1.0000000000000000
    -3.6982743490102581    0.0000000000000000    0.0000000000000000
     0.0000000000000000   -7.7774522865481748    0.0096387742278542
     0.0000000000000000    3.8602458654454344   16.6280363134594928
 Sr  Co  O  
   8   8  20
Selective dynamics
Direct
 -0.0000000000000000 -0.0124650779832153 -0.0195264803885797   T   T   T
 -0.0000000000000000  0.1166878338448169  0.2511822170090771   T   T   T
 -0.0000000000000000  0.2532212543356636  0.5164930876750385   T   T   T
 -0.0000000000000000  0.3853327300989901  0.7505087413486072   T   T   T
 -0.0000000000000000  0.4814844013630440 -0.0172730048302350   T   T   T
 -0.0000000000000000  0.6287522379653329  0.2610563462698117   T   T   T
 -0.0000000000000000  0.7492931683369597  0.5177040808721387   T   T   T
 -0.0000000000000000  0.8513035764661879  0.7501572138327157   T   T   T
  0.4999999999999989  0.8382308921041813  0.1161819228703338   T   T   T
  0.4999999999999989  0.9267415194890533  0.3900839518849313   T   T   T
  0.4999999999999989  0.0575640066313722  0.6275560630514857   T   T   T
  0.4999999999999989  0.1767243309312292  0.8665469045580788   T   T   T
  0.4999999999999989  0.3420910193543710  0.1222855327614877   T   T   T
  0.4999999999999989  0.4483170740709305  0.3905828656118518   T   T   T
  0.4999999999999989  0.5569441584314487  0.6301769170072944   T   T   T
  0.4999999999999989  0.6776850490408233  0.8707658380849228   T   T   T
  0.4999999999999989  0.7328034031823597  0.0085414146011352   T   T   T
 -0.0000000000000000  0.9122138377650193  0.1153932477535722   T   T   T
  0.4999999999999989  0.8496945089410403  0.2236321783043035   T   T   T
 -0.0000000000000000  0.9767096071955627  0.3717966160685180   T   T   T
  0.4999999999999989  0.0059386451435418  0.5045326124826128   T   T   T
 -0.0000000000000000  0.0696256263588929  0.6555460171059218   T   T   T
  0.4999999999999989  0.2979833390259723  0.6360219365373271   T   T   T
 -0.0000000000000000  0.1683059833081229  0.8497382614826263   T   T   T
  0.4999999999999989  0.4163851093148345  0.8705854735211342   T   T   T
  0.4999999999999989  0.2400651892147494  0.0152277397581934   T   T   T
 -0.0000000000000000  0.4225273532440276  0.1236296372693768   T   T   T
  0.4999999999999989  0.3273145568152533  0.2267927232655748   T   T   T
 -0.0000000000000000  0.3814382918747594  0.3740668361870070   T   T   T
  0.4999999999999989  0.6750123698479902  0.3659231196001162   T   T   T
  0.4999999999999989  0.4876306154257067  0.5048979260163806   T   T   T
 -0.0000000000000000  0.5574321709840652  0.6270117341806186   T   T   T
  0.4999999999999989  0.8207642187724400  0.6297697298941991   T   T   T
  0.4999999999999989  0.6205210666592639  0.7504909720659864   T   T   T
 -0.0000000000000000  0.6824516592864844  0.8769067752767682   T   T   T
  0.4999999999999989  0.9397742893138705  0.8700127918786625   T   T   T
