Sr Co O 
 1.0000000000000000
    -3.6697533819316774    0.0000000000000000    0.0000000000000000
     0.0000000000000000    8.3590728860216554    7.8027501963866994
     0.0000000000000000    8.3768839886406568   -7.8149712402194620
 Sr  Co  O  
   8   8  20
Selective dynamics
Direct
 -0.0000000000000000 -0.0181128335957882 -0.0147930083697149   T   T   T
 -0.0000000000000000  0.2246896927821269  0.7372014827624094   T   T   T
 -0.0000000000000000  0.4915601289134400  0.5175707489685384   T   T   T
 -0.0000000000000000  0.7652704490800186  0.2646886890424760   T   T   T
 -0.0000000000000000  0.4915217944108799  0.0078928208602391   T   T   T
 -0.0000000000000000  0.7376235216660810  0.7431509100435997   T   T   T
 -0.0000000000000000 -0.0059252626509387  0.5170623453602244   T   T   T
 -0.0000000000000000  0.2804454455026211  0.2603367808820002   T   T   T
  0.5000000000000007  0.2199079570336767  0.0221804385554109   T   T   T
  0.5000000000000007  0.4829562222663112  0.7548065770933208   T   T   T
  0.5000000000000007  0.7456548666728566  0.5071098943148825   T   T   T
  0.5000000000000007  0.0057171598171773  0.2641907452489092   T   T   T
  0.5000000000000007  0.7326597079614859 -0.0158217400048819   T   T   T
  0.5000000000000007 -0.0173034700467648  0.7463118053188228   T   T   T
  0.5000000000000007  0.2493060329204182  0.5038644237856834   T   T   T
  0.5000000000000007  0.5164264225771621  0.2770865512684088   T   T   T
  0.5000000000000007  0.1377522585195596  0.8909168527405879   T   T   T
 -0.0000000000000000  0.4360606576260466  0.8013400463016150   T   T   T
  0.5000000000000007  0.3622471279735738  0.6370737454035594   T   T   T
  0.5000000000000007  0.6054623522008780  0.6367549801873021   T   T   T
 -0.0000000000000000  0.7442068962420326  0.5054965574850091   T   T   T
  0.5000000000000007  0.6476406645251122  0.3651683416669738   T   T   T
  0.5000000000000007  0.8932027548601246  0.3809727500055246   T   T   T
 -0.0000000000000000  0.1842614519474626  0.0628123118441657   T   T   T
  0.5000000000000007  0.9222936587673553  0.1409094387917865   T   T   T
 -0.0000000000000000  0.7231654973829331  0.0432501458499661   T   T   T
  0.5000000000000007  0.6006023005628395  0.8892565366076053   T   T   T
  0.5000000000000007  0.8630675917317263  0.8818365115490788   T   T   T
 -0.0000000000000000 -0.0087961863365511  0.7570711907988200   T   T   T
  0.5000000000000007  0.8591178591200226  0.6327229622727194   T   T   T
  0.5000000000000007  0.1097929168378787  0.6187635834978801   T   T   T
 -0.0000000000000000  0.2427990980127436  0.4951874941109458   T   T   T
  0.5000000000000007  0.1371916096083551  0.3350104848244971   T   T   T
  0.5000000000000007  0.3859726762913794  0.3832002362714520   T   T   T
 -0.0000000000000000  0.5206503710550887  0.2277518344628178   T   T   T
  0.5000000000000007  0.3559104549622630  0.0966649597455374   T   T   T
