Sr Co O 
 1.0000000000000000
     3.9087235904771669    0.0149149307046589    3.9350048030928333
     3.8550158407487372   -3.9380056749002605   -3.8969369089288932
     3.9961374592536285   12.0278784286347005   -3.9774899074225467
 Sr  Co  O  
   8   8  20
Selective dynamics
Direct
 -0.0300654870239336  0.0085857895153039  0.0025117251179447   T   T   T
  0.4990308705222413  0.6310598149997860  0.8517544429897597   T   T   T
  0.0042501777186814  0.2591483146721215  0.7370305985569352   T   T   T
  0.5271559267431560  0.8496649038506882  0.6147073176385639   T   T   T
  0.0181032585687670  0.4647206952839272  0.4991994748016110   T   T   T
  0.5249232422628078  0.1056203125401670  0.3897858705022157   T   T   T
  0.0255829860333089  0.7248074372417174  0.2749712048590182   T   T   T
  0.5019576215681755  0.3761401289864603  0.1486334923122498   T   T   T
  0.5281088151577011  0.8840126282176866  0.1483614179966193   T   T   T
 -0.0909600823879798  0.5087686328835972 -0.0003323481201396   T   T   T
  0.5196141673410130  0.1196205460993092  0.8541935894467841   T   T   T
  0.0087966708862210  0.7406586240950841  0.7615883743663528   T   T   T
  0.5140280530903889  0.3636385918409378  0.6245917749309622   T   T   T
  0.0209983029138013 -0.0145676601034952  0.4970275502649051   T   T   T
  0.5209352101955601  0.5979206387420105  0.3834137042054799   T   T   T
  0.0131438646295074  0.2306018757287717  0.2553646530942059   T   T   T
  0.2540302714710020  0.0326080175129037  0.1499006612644764   T   T   T
  0.6665199894043103  0.7283268207543321  0.0301567155488539   T   T   T
  0.6715145427263646  0.2798187859384951  0.9653460376401442   T   T   T
  0.0336225546188181  0.5754450020642893  0.8832285070735955   T   T   T
  0.2538765716268644  0.9568267138875143  0.8485849333407808   T   T   T
  0.4855074932037946  0.2790565997863813  0.7544755323394956   T   T   T
  0.7751069440638932  0.9370009489773214  0.8021272344652934   T   T   T
  0.7725208014844133  0.5662388781916033  0.6818863364139905   T   T   T
  0.2495107754430975  0.6029952938563546  0.6831969733402095   T   T   T
  0.2465979510079317  0.1446646805674574  0.5739811683412315   T   T   T
  0.5069317370441515  0.4546504178842524  0.5023625700309849   T   T   T
  0.7676201874785297  0.1510739368124163  0.5730618642528277   T   T   T
  0.8026517521320647  0.7800577478157100  0.4609306024683927   T   T   T
  0.0086562881612635  0.0857006454737921  0.3696647109079311   T   T   T
  0.2879983203521290  0.7842385889524991  0.4447095932678074   T   T   T
  0.2600670347923108  0.4013232681725937  0.3111952838088635   T   T   T
  0.5241871842737095  0.7417881236874538  0.2541905082292636   T   T   T
  0.7633694034525440  0.4289412335981271  0.3196442896370357   T   T   T
  0.7660175932557185  0.0872474012146074  0.1765046614677660   T   T   T
  0.0480892396531635  0.4440955903914925  0.1095488874814484   T   T   T
