Sr Co O 
 1.0000000000000000
     3.8940553507918403   -3.9779821060538159   -0.0001483525017823
    -3.8804088544481674    0.0133325387940203   -7.8389573001258945
     7.7325787798983479    7.9000152670852968    0.0010720473160056
 Sr  Co  O  
   8   8  21
Selective dynamics
Direct
  0.0078094339740009  0.0169545341719546 -0.0083666837140788   T   T   T
  0.7398268645178041  0.4711900283966537  0.8740496939158255   T   T   T
  0.5037942632486172  0.0008048191485012  0.7432834420325554   T   T   T
  0.2589730570854855  0.4982458831185105  0.6201060452115055   T   T   T
  0.0085287390148243  0.0100477845308045  0.5170714583494248   T   T   T
  0.7518443777054273  0.4964478955603804  0.3781801304883109   T   T   T
  0.4990122279173878  0.0254015317319567  0.2687641130852891   T   T   T
  0.2220282828768916  0.4710453163980448  0.1237751312901710   T   T   T
  0.8201807726992761  0.7215749941538298  0.1924524323042380   T   T   T
  0.6123413844058555  0.2354389728419737  0.0634007110608676   T   T   T
  0.4520049513527195  0.7510946583983115  0.9418939435229005   T   T   T
  0.1248938982949364  0.2514441314518285  0.8165489006042217   T   T   T
  0.8621534285862290  0.7459678519337879  0.6715438975920923   T   T   T
  0.6302495469221406  0.2538649071801962  0.5699118080351441   T   T   T
  0.3657024788723655  0.7595149049713467  0.4326210962778475   T   T   T
  0.1330327047454377  0.2733517684609677  0.3203891026712150   T   T   T
  0.7642149998746829  0.7611159954371967  0.0412506826617342   T   T   T
  0.7668311760624283  0.4911123825222933  0.1344980686483439   T   T   T
  0.3801342608461880  0.2517533021986735  0.9465913471477998   T   T   T
  0.8711957652071417  0.2346115152323391  0.9297111260670130   T   T   T
  0.4364821730265123 -0.0365047003177621  0.0030471004792945   T   T   T
  0.5964411212682841  0.7513881181634182  0.7877198361314178   T   T   T
  0.2342998449165919  0.5377198086267975  0.9069267927002698   T   T   T
  0.8685126359209706  0.2454274466559331  0.6869700844941536   T   T   T
  0.3668136680752771  0.2634272217482683  0.7004447706235367   T   T   T
  0.0172599676976245 -0.0261394152151213  0.7509064857320296   T   T   T
  0.6512170645231394  0.7397598291762942  0.5331115605146871   T   T   T
  0.1484034179013248  0.7462036023487048  0.5754517727532215   T   T   T
  0.7980313243062067  0.5216400808507553  0.6484345389096349   T   T   T
  0.4078980024203552  0.2717468440110954  0.4475946834181426   T   T   T
  0.8985798057417220  0.2335860176626417  0.4284351700046988   T   T   T
  0.4928964103905036 -0.0034728870783969  0.5024277574236404   T   T   T
  0.0954411510886582  0.8084386067100120  0.3102337628444144   T   T   T
  0.5580732171763368  0.7575115094603911  0.2786095454337698   T   T   T
  0.2222732773717354  0.5192059173970093  0.3630537437895036   T   T   T
  0.8463811061329941  0.2169957119932600  0.1785670603884678   T   T   T
  0.3362426351415780  0.2320829225536395  0.1953890336901242   T   T   T
