Sr Co O 
 1.0000000000000000
     3.8925533118691442   -3.9441905999643132    0.0052638579070819
    -3.8754296678562308    0.0281283468845903   -7.9921777615870964
     7.6731025628846981    7.7755072259120945    0.0122167908125575
 Sr  Co  O  
   8   8  20
Selective dynamics
Direct
  0.0235465338248649  0.0292115270603955  0.0271314073427785   T   T   T
  0.7529516402376802  0.4807724113666362  0.8698705608508972   T   T   T
  0.4760171093646208  0.0001793205065583  0.7408249748274516   T   T   T
  0.2235175074423461  0.4704054171008515  0.6275104353676594   T   T   T
 -0.0140500768207387  0.0006186875292093  0.4824881844640913   T   T   T
  0.7486978270461891  0.4918905609322651  0.3797721141541288   T   T   T
  0.5095510551689278  0.0204612820368528  0.2628656954298544   T   T   T
  0.2577331881574944  0.4960913772844829  0.1275541333941346   T   T   T
  0.8577573680394098  0.7470958630790292  0.1875284744517903   T   T   T
  0.6551321544599514  0.2592759401503525  0.0776470226022119   T   T   T
  0.4558931473924286  0.7656351188446189  0.9317755858587757   T   T   T
  0.0689969755084623  0.2062487039952091  0.7999905507736508   T   T   T
  0.8526943732401912  0.7484735612970850  0.6828835945136361   T   T   T
  0.6152907469923093  0.2456111466374596  0.5651154860748999   T   T   T
  0.3442751864238994  0.7467238333085578  0.4222144563359167   T   T   T
  0.1332161554891804  0.2571939953001439  0.3231409661827643   T   T   T
 -0.0017332884424525 -0.0069776752661405  0.2480936083447033   T   T   T
  0.7494807454588055  0.7540256851544505  0.0232914572481346   T   T   T
  0.7232310743010885  0.4929621097500931  0.0999763816152269   T   T   T
  0.8797961155776389  0.2404795666426784  0.9394662275912221   T   T   T
  0.4760685920683801 -0.0139969127992954  0.0029728812626111   T   T   T
  0.5478500815745305  0.7466611864337015  0.7542333284814491   T   T   T
  0.2288342260604006  0.5634924128346331  0.9059690716303626   T   T   T
  0.8531976672829154  0.2370233283440426  0.6847322496236997   T   T   T
  0.3610452555222053  0.2521186768963863  0.7213202487824457   T   T   T
  0.0234784976570453 -0.0284327353804635  0.7838828739316955   T   T   T
  0.0532130524732615  0.7640653594987136  0.5522041266879796   T   T   T
  0.7744981641425289  0.5218250997561356  0.6433423791567919   T   T   T
  0.3660479241917628  0.2490277219197053  0.4481037461518002   T   T   T
  0.8629469946740219  0.2489938889422452  0.4383049802710164   T   T   T
  0.4932172558690901 -0.0263635385373105  0.4999620030981611   T   T   T
  0.1626838551358132  0.7418930947171098  0.2610205121858983   T   T   T
  0.6446390989753632  0.7372076848208456  0.3162423833657729   T   T   T
  0.2784089761594508  0.5283583192200211  0.4076853798108271   T   T   T
  0.9160509234761988  0.2724140920697692  0.1998004234417492   T   T   T
  0.3958241850766261  0.2593337547304160  0.1860818393271608   T   T   T
