Sr Co O 
 1.0000000000000000
    -3.7351638684824309    0.0000000000000000    0.0000000000000000
     0.0000000000000000    3.8729219375418307    7.9729900682889729
     0.0000000000000000   11.7360200652241460   -8.0317770978334018
 Sr  Co  O  
   8   8  20
Selective dynamics
Direct
 -0.0000000000000000 -0.0038298929632989 -0.0015445503592819   T   T   T
 -0.0000000000000000  0.3498203689141461  0.8609644734701073   T   T   T
 -0.0000000000000000  0.7272400556473249  0.7497695891382731   T   T   T
 -0.0000000000000000  0.1312245944096308  0.6154451241269167   T   T   T
 -0.0000000000000000  0.4890823662262584  0.5055152164056759   T   T   T
 -0.0000000000000000  0.8995430738872886  0.3661054179849546   T   T   T
 -0.0000000000000000  0.2556585941241086  0.2538306725841699   T   T   T
 -0.0000000000000000  0.6392292094127205  0.1349644631965350   T   T   T
  0.5000000000000002  0.3190677975892922  0.0602231480629055   T   T   T
  0.5000000000000002  0.6753333954835911  0.9376015068382524   T   T   T
  0.5000000000000002  0.0513125338631261  0.8150958802433064   T   T   T
  0.5000000000000002  0.4253390311381208  0.6870388374170311   T   T   T
  0.5000000000000002  0.8174128717762857  0.5688758357069694   T   T   T
  0.5000000000000002  0.1944749426744737  0.4339326376260401   T   T   T
  0.5000000000000002  0.5735718762958683  0.3151282995205199   T   T   T
  0.5000000000000002  0.9460966006748770  0.1839685001153236   T   T   T
  0.5000000000000002  0.1449551854891864  0.1146662573989562   T   T   T
  0.5000000000000002  0.1992118723344676  0.9427382703377142   T   T   T
  0.5000000000000002  0.4988574779569294  0.0011416629802161   T   T   T
  0.5000000000000002  0.5507469202451865  0.8224186049538457   T   T   T
  0.5000000000000002  0.8462892181313360  0.8740431674655857   T   T   T
 -0.0000000000000000  0.0272348467355698  0.8032680848397058   T   T   T
  0.5000000000000002  0.2158542928239248  0.7399905093272505   T   T   T
 -0.0000000000000000  0.4335079892840359  0.6900691785349408   T   T   T
  0.5000000000000002  0.3090642393846885  0.5592429909783049   T   T   T
  0.5000000000000002  0.6382941155404622  0.6190338933745050   T   T   T
 -0.0000000000000000  0.8367816348690047  0.5909176536295734   T   T   T
  0.5000000000000002 -0.0309129277042294  0.4959708794426257   T   T   T
 -0.0000000000000000  0.1919863637167194  0.4353426887222298   T   T   T
  0.5000000000000002  0.0795422109459906  0.3083911763763950   T   T   T
  0.5000000000000002  0.4045792799463384  0.3759625082165114   T   T   T
 -0.0000000000000000  0.6085746822818781  0.3486608516580726   T   T   T
  0.5000000000000002  0.4376231476153808  0.1773942590968435   T   T   T
  0.5000000000000002  0.7497422352229681  0.2571828621391772   T   T   T
 -0.0000000000000000  0.9423850756440568  0.1795122969934136   T   T   T
  0.5000000000000002  0.8001047790028700  0.0521371986520199   T   T   T
