Sr Co O 
 1.0000000000000000
     3.7425646900427232    0.0000000000000000    0.0000000000000000
     0.0000000000000000    3.7820988303861336    0.0000000000000000
     0.0000000000000000    0.0000000000000000   25.8040263137105583
 Sr  Co  O  
   6   6  13
Selective dynamics
Direct
  0.0000000000000000  0.0000000000000000 -0.0177969107561920   T   T   T
  0.0000000000000000  0.0000000000000000  0.1751614183228324   T   T   T
  0.0000000000000000  0.0000000000000000  0.3259598796873583   T   T   T
  0.0000000000000000  0.0000000000000000  0.5175729562594512   T   T   T
  0.0000000000000000  0.0000000000000000  0.6748578328302577   T   T   T
  0.0000000000000000  0.0000000000000000  0.8248941064212932   T   T   T
  0.4999999999999999  0.4999999999999998  0.0856215024236605   T   T   T
  0.4999999999999999  0.4999999999999998  0.2494603255167291   T   T   T
  0.4999999999999999  0.4999999999999998  0.4149186448045078   T   T   T
  0.4999999999999999  0.4999999999999998  0.5975360328866071   T   T   T
  0.4999999999999999  0.4999999999999998  0.7498718549814947   T   T   T
  0.4999999999999999  0.4999999999999998  0.9022552889706901   T   T   T
  0.4999999999999999  0.4999999999999998  0.0164424668477450   T   T   T
  0.0000000000000000  0.4999999999999998  0.1184342178090929   T   T   T
  0.4999999999999999  0.0000000000000000  0.2471311694154959   T   T   T
  0.4999999999999999  0.0000000000000000  0.3837903429174251   T   T   T
  0.4999999999999999  0.4999999999999998  0.4841127101569783   T   T   T
  0.0000000000000000  0.4999999999999998  0.5837988829905852   T   T   T
  0.4999999999999999  0.0000000000000000  0.5847247449065732   T   T   T
  0.4999999999999999  0.4999999999999998  0.6723167945396649   T   T   T
  0.0000000000000000  0.4999999999999998  0.7499645593759846   T   T   T
  0.4999999999999999  0.0000000000000000  0.7499587922297978   T   T   T
  0.4999999999999999  0.4999999999999998  0.8275841242310585   T   T   T
  0.0000000000000000  0.4999999999999998  0.9161511125181635   T   T   T
  0.4999999999999999  0.0000000000000000  0.9152770985262273   T   T   T
