Sr Co O 
 1.0000000000000000
     3.8995485595029633    3.9848756840952846    3.7751108316546986
    -3.8995485595029633    3.9848756840952846   -3.7751108316546986
    -7.8115552349280071   -0.0000000000000000    7.5629058283356390
 Sr  Co  O  
   8   8  20
Selective dynamics
Direct
 -0.0107640747816079 -0.0052972069383420 -0.0029124404635921   T   T   T
  0.2324986671373378  0.7432821051835601  0.2583563401835555   T   T   T
  0.4901049789786133  0.4953619949736757  0.4967159245630493   T   T   T
  0.7547006516614320  0.2341018884864103  0.7473135035529462   T   T   T
  0.5052972069383411  0.5107640747816086 -0.0029124404635925   T   T   T
  0.7567178948164399  0.2675013328626636  0.2583563401835553   T   T   T
  0.0046380050263247  0.0098950210213860  0.4967159245630497   T   T   T
  0.2658981115135901  0.7452993483385678  0.7473135035529465   T   T   T
  0.5045879826190348 -0.0045879826190342 -0.0036413385294370   T   T   T
  0.7522167407873481  0.7477832592126515  0.2530760916446251   T   T   T
  0.0008277483943404  0.4991722516056590  0.4990654549738263   T   T   T
  0.2479028097612020  0.2520971902387986  0.7444409461306796   T   T   T
  0.0002541430923981  0.4997458569076020  0.0003062550431858   T   T   T
  0.2389194946955194  0.2610805053044807  0.2521602153721360   T   T   T
  0.5021019652824832 -0.0021019652824819  0.4963094539223581   T   T   T
  0.7545688279659495  0.7454311720340502  0.7543436806569721   T   T   T
  0.2631051053785554  0.7964493660266336  0.0181314627383699   T   T   T
  0.6138456846800093  0.8861543153199903  0.3408657080915222   T   T   T
  0.4979184657795462  0.5047510474982515  0.2359663171123029   T   T   T
  0.8631225780422122  0.6368774219577875  0.4027770465245245   T   T   T
  0.7348424380528520  0.2433837491656120  0.5044088211133422   T   T   T
  0.0952878158315686  0.4047121841684309  0.6376759551313113   T   T   T
  0.1571016609554527  0.3428983390445477  0.8846734735649923   T   T   T
  0.0173025217490481 -0.0166495390867477  0.7505894817661291   T   T   T
  0.8934351758164998  0.6065648241835000  0.8577726600009401   T   T   T
  0.8572372352840277  0.6427627647159725  0.1227565047576668   T   T   T
  0.7035506339733660  0.2368948946214452  0.0181314627383699   T   T   T
  0.1279059101191253  0.3720940898808748  0.1237449087620690   T   T   T
  0.1230658994732885  0.3769341005267114  0.3802252651069111   T   T   T
 -0.0047510474982508  0.0020815342204529  0.2359663171123033   T   T   T
  0.3731552881631707  0.1268447118368296  0.3514427569334593   T   T   T
  0.3780789369539547  0.1219210630460463  0.6415655381945832   T   T   T
  0.2566162508343875  0.7651575619471469  0.5044088211133418   T   T   T
  0.6577991321684477  0.8422008678315520  0.6144006050031778   T   T   T
  0.6242595751235667  0.8757404248764328  0.8789000208165750   T   T   T
  0.5166495390867473  0.4826974782509521  0.7505894817661288   T   T   T
