Sr Co O 
 1.0000000000000000
     4.0165889487912949    0.0003970491259717    3.9136640196085066
     0.0914926569202904   -7.6935999552308418   -0.0936808012187462
     8.0472529611753334   -0.1870064425130388   -7.8398508564163985
 Sr  Co  O  
   8   8  20
Selective dynamics
Direct
 -0.0152393796015714  0.0027030904715688  0.0087282636520109   T   T   T
  0.4871545284714879  0.0298529261961186  0.7650879695028447   T   T   T
  0.0299111044200581  0.0019977244400762  0.4828380114357444   T   T   T
  0.5143609721651586 -0.0048439180673616  0.2462572639586929   T   T   T
 -0.0183514348536143  0.5046395002376518  0.0167076765714041   T   T   T
  0.4692795640658487  0.4965566351584639  0.7542969956485550   T   T   T
  0.0167288719805660  0.4748664258217982  0.4799752448852942   T   T   T
  0.5088189892068997  0.4998627341350437  0.2484237140563310   T   T   T
  0.4812487311366186  0.7604638999691662  0.0045042549209300   T   T   T
 -0.0228407989471602  0.7189768030261590  0.7870109844291150   T   T   T
  0.5182344737985602  0.7362113664801474  0.4779882169778825   T   T   T
  0.0110339447092399  0.7495775467470980  0.2444508824940493   T   T   T
  0.5210282817816794  0.2605760831486306 -0.0042291978966269   T   T   T
 -0.0072337644748010  0.2757560747697367  0.7416077461542089   T   T   T
  0.5125553653407292  0.2348151537209726  0.5102250577576785   T   T   T
 -0.0096913871557627  0.2451656622343263  0.2602056671484302   T   T   T
  0.2351630346853043  0.7504502665899309  0.1199621812592243   T   T   T
  0.2392535088950660  0.7805577354528712  0.8630940712332291   T   T   T
  0.4611320380246218  0.0314381516633169  0.0126724697602626   T   T   T
  0.7208468840769608  0.7844487880928830  0.8710431473599063   T   T   T
  0.2669454122832163  0.7393023981335353  0.3700697026441638   T   T   T
  0.4837649329701046 -0.0575843904391159  0.5446508165907895   T   T   T
  0.7928014815701269  0.7561153329677491  0.3767260952500682   T   T   T
  0.7407854282684881  0.7500086719119345  0.1265508262504382   T   T   T
  0.0375260400944539  0.0176222647126651  0.2352012303133839   T   T   T
  0.1948539249459715  0.2558314046007005  0.8677612145076391   T   T   T
  0.4551024664782843  0.4886016828353752  0.0070622000851397   T   T   T
  0.7248081236620870  0.2739828952282189  0.8549497393326498   T   T   T
  0.7920334326150295  0.1978274571539575  0.6294132433730077   T   T   T
  0.0094465912079908  0.5394986481390076  0.6935343158654513   T   T   T
  0.2675246958186510  0.2404870672550377  0.6280456654944826   T   T   T
  0.2703026403163992  0.2402844821506025  0.3698993170333402   T   T   T
  0.5343351699042385  0.5121124232810588  0.5254399622273694   T   T   T
  0.7482086848888083  0.2288629620134651  0.3877215367402289   T   T   T
  0.7525569602474727  0.2545809045214404  0.1258891590386615   T   T   T
  0.0256106567898640  0.4783927871598371  0.2412343526736509   T   T   T
