Sr Co O 
 1.0000000000000000
     3.9041004751245660   -3.9519241188044121   -0.0044327602383204
    -3.9308726719676668   -0.0359715506743521   -7.8481314300329199
     7.8482603230578958    7.9443600891385264    0.0423884472742020
 Sr  Co  O  
   8   8  21
Selective dynamics
Direct
  0.0090611983706088  0.0045779992983941 -0.0192734893500122   T   T   T
  0.7627106746314194  0.5157132937820643  0.8864103006541849   T   T   T
  0.4948231327988252 -0.0161767263987959  0.7515159263778800   T   T   T
  0.2604286191899255  0.5059422336001488  0.6045865986347360   T   T   T
 -0.0102016474907332 -0.0077646218544627  0.5110588604754162   T   T   T
  0.7528097678251210  0.4891422586188876  0.3751536232067437   T   T   T
  0.4926400373801361  0.0095105043325259  0.2486397563983774   T   T   T
  0.2441638506215389  0.4794888997897279  0.1311846049059908   T   T   T
  0.8743603226461243  0.7328858687706318  0.2074257264622527   T   T   T
  0.6309061217728816  0.2421239187834960  0.0604309664615570   T   T   T
  0.3856703576491122  0.7505211584226839  0.9146562149378693   T   T   T
  0.1463563650620898  0.2481277949299874  0.8231197867733068   T   T   T
  0.8781686007271401  0.7440954170658555  0.6805651560652267   T   T   T
  0.5793965614579983  0.2486704206335914  0.5654525196734416   T   T   T
  0.3807871983375529  0.7592935955838536  0.4410101279136912   T   T   T
  0.1326852226500303  0.2590191449219209  0.3081313247007517   T   T   T
  0.0187023506022397  0.7957206214909164  0.0837444676150578   T   T   T
  0.7354027102850488  0.4961571813284418  0.1335687062006221   T   T   T
  0.3942354604692719  0.2299166541900517  0.9344639629064713   T   T   T
  0.8942824784995713  0.2659253483290436  0.9232157686292748   T   T   T
  0.5268551812048602 -0.0247045465805470  0.0018398488196940   T   T   T
  0.1162230554561125  0.7514124445560983  0.8156705300434923   T   T   T
  0.6245146662353666  0.7302601308961090  0.7934273604072551   T   T   T
  0.3141914561086057  0.5461299930277486  0.9299395706014305   T   T   T
  0.3134345329169224  0.2767199858196720  0.6880839505515089   T   T   T
 -0.0255247187041325  0.0049502020988731  0.7415724103682048   T   T   T
  0.6233830508456578  0.7291989569284721  0.5429627943726012   T   T   T
  0.1236963864776448  0.7466445465917843  0.5688330153948593   T   T   T
  0.7851293798467013  0.4663552732721498  0.6282500795101450   T   T   T
  0.3986016496388762  0.2488067944850113  0.4187076672375625   T   T   T
  0.9054372784688557  0.2077216452003081  0.4100226879723476   T   T   T
  0.5338321512623997  0.0282281327884835  0.5386551952978266   T   T   T
  0.1508705408318539  0.7948081003890650  0.3324592331434175   T   T   T
  0.6286809619886439  0.7798969550576622  0.3015343714030676   T   T   T
  0.2291350426512409  0.5033603887586308  0.3632482104447149   T   T   T
  0.8620072400422032  0.2349544088839708  0.1787824866531778   T   T   T
  0.3321427956218635  0.2223659931596306  0.1809497417932842   T   T   T
