Sr Co O 
 1.0000000000000000
     3.8474062660234560   -0.0000000000000000   -0.0000000000000000
    -0.0000000000000000    3.8474062660234800   -0.0000000000000001
     0.0000000000000000   -0.0000000000000008   24.9045651151759806
 Sr  Co  O  
   6   6  13
Selective dynamics
Direct
 -0.0000000000000000  0.0000000000000000 -0.0111859027909966   T   T   T
 -0.0000000000000000  0.0000000000000000  0.1906340931027929   T   T   T
 -0.0000000000000000 -0.0000000000000000  0.3333333333333334   T   T   T
  0.0000000000000000  0.0000000000000000  0.4760325735638735   T   T   T
 -0.0000000000000000 -0.0000000000000000  0.6778525694576637   T   T   T
  0.0000000000000000  0.0000000000000000  0.8333333333333341   T   T   T
  0.4999999999999998  0.5000000000000006  0.0933925766267786   T   T   T
  0.4999999999999998  0.5000000000000006  0.2552632097272988   T   T   T
  0.4999999999999998  0.5000000000000006  0.4114034569393685   T   T   T
  0.4999999999999998  0.5000000000000006  0.5732740900398879   T   T   T
  0.4999999999999998  0.5000000000000006  0.7554336227665013   T   T   T
  0.4999999999999998  0.5000000000000006  0.9112330439001641   T   T   T
  0.4999999999999998  0.5000000000000006  0.0236220059700608   T   T   T
  0.4999999999999998  0.5000000000000006  0.1647722120061470   T   T   T
 -0.0000000000000000  0.5000000000000006  0.2621792979292438   T   T   T
  0.4999999999999998 -0.0000000000000000  0.2621792979292439   T   T   T
 -0.0000000000000000  0.5000000000000006  0.4044873687374225   T   T   T
  0.4999999999999998  0.0000000000000000  0.4044873687374225   T   T   T
  0.4999999999999998  0.5000000000000007  0.5018944546605193   T   T   T
  0.4999999999999998  0.5000000000000006  0.6430446606966065   T   T   T
 -0.0000000000000000  0.5000000000000006  0.7449345034604271   T   T   T
  0.4999999999999998 -0.0000000000000000  0.7449345034604271   T   T   T
  0.4999999999999998  0.5000000000000006  0.8333333333333341   T   T   T
  0.0000000000000000  0.5000000000000006  0.9217321632062385   T   T   T
  0.4999999999999998  0.0000000000000000  0.9217321632062385   T   T   T
