Sr Co O 
 1.0000000000000000
     3.9261554823904268   -0.0000000000000000    3.9261554823904294
     3.9374260411535578   -3.9478632223058678   -3.9374260411535618
     3.8970285233293147   11.7625939884587236   -3.8970285233293174
 Sr  Co  O  
   8   8  21
Selective dynamics
Direct
 -0.0000000000000000  0.0233110613818937 -0.0138134948395994   T   T   T
  0.4999999999999999  0.6148161133179232  0.8561627821712714   T   T   T
  0.0000000000000003  0.2424613845631660  0.7316696146694871   T   T   T
  0.4999999999999994  0.8715737041854128  0.6181514811640815   T   T   T
 -0.0000000000000001  0.4978293029275787  0.5055017242852095   T   T   T
  0.4999999999999997  0.1338843520213310  0.3966496923498413   T   T   T
  0.0000000000000005  0.7370476770063565  0.2694144532714823   T   T   T
  0.4999999999999999  0.3695223524168389  0.1310408398556412   T   T   T
  0.5000000000000008  0.9234261967120434  0.1664269507386603   T   T   T
 -0.0000000000000001  0.4686731347568693 -0.0103138528685654   T   T   T
  0.4999999999999996  0.1329717412088358  0.8588762617039504   T   T   T
 -0.0000000000000010  0.7569988824123145  0.7494738231559048   T   T   T
  0.4999999999999996  0.3777489554370530  0.6240194861673574   T   T   T
  0.0000000000000003 -0.0064650861048408  0.4968419448117027   T   T   T
  0.5000000000000004  0.6102173085962298  0.3763033877180262   T   T   T
  0.0000000000000004  0.2509531779894323  0.2521102554983461   T   T   T
  0.2383497447113358  0.0667700182650855  0.1572101737913590   T   T   T
  0.7277032483865000  0.3074785486615004  0.9453587143056033   T   T   T
  0.0000000000000013  0.6548331205373876  0.9103513973661923   T   T   T
  0.2722967516134997  0.3074785486614985  0.9453587143056035   T   T   T
  0.2556574547651378  0.9404792102351923  0.8201550881514728   T   T   T
  0.4999999999999996  0.2606138201296895  0.7435070099340642   T   T   T
  0.7443425452348617  0.9404792102351937  0.8201550881514730   T   T   T
  0.7594491520987033  0.5673575054670272  0.6969236599806607   T   T   T
 -0.0000000000000013  0.8792140979089507  0.6168525304145007   T   T   T
  0.2405508479012964  0.5673575054670270  0.6969236599806603   T   T   T
  0.2490362126822643  0.1885153353314249  0.5615003078503819   T   T   T
  0.4999999999999997  0.5008722248179872  0.5127951706257610   T   T   T
  0.7509637873177343  0.1885153353314249  0.5615003078503819   T   T   T
  0.7395090552750447  0.7965122305776494  0.4323005449044754   T   T   T
 -0.0000000000000000  0.0942117336119283  0.3720130672968496   T   T   T
  0.2604909447249557  0.7965122305776491  0.4323005449044755   T   T   T
  0.2550226848376312  0.4197393968605611  0.3166733293229119   T   T   T
  0.5000000000000004  0.7145427309958586  0.2267812796156186   T   T   T
  0.7449773151623683  0.4197393968605606  0.3166733293229115   T   T   T
  0.7616502552886637  0.0667700182650861  0.1572101737913591   T   T   T
  0.0000000000000000  0.4420375812659556  0.1239405636122608   T   T   T
