Sr Co O 
 1.0000000000000000
    -7.8057595985273807   -0.0000000000000000   -0.0000000000000000
    -0.0000000000000000   -7.5797250794809079    0.1050026685814150
     3.9028797992636903   -0.1022337576079534    7.9823435196105086
 Sr  Co  O  
   8   8  20
Selective dynamics
Direct
 -0.0144701152162413  0.0036255396289133 -0.0140423066323546   T   T   T
  0.2593580638013303  0.0067714502195786  0.5161204638218612   T   T   T
  0.5004278085838876  0.0036255396289133 -0.0140423066323546   T   T   T
  0.7567624000205303  0.0067714502195786  0.5161204638218612   T   T   T
 -0.0096491933602444  0.4863220164853251 -0.0133281415930978   T   T   T
  0.2591994695500945  0.4977065051183401  0.5207256350265657   T   T   T
  0.4963210517671475  0.4863220164853251 -0.0133281415930978   T   T   T
  0.7615261654764705  0.4977065051183401  0.5207256350265657   T   T   T
  0.8729880545064282  0.7546237297640289  0.2459761090128538   T   T   T
  0.1177494999325414  0.7469907974628225  0.7354989998650845   T   T   T
  0.3895326917038932  0.7311899569425031  0.2790653834077867   T   T   T
  0.6281781845495485  0.7492785291875350  0.7563563690990982   T   T   T
  0.8767193201441331  0.2486499992090130  0.2534386402882636   T   T   T
  0.1265841736375902  0.2454496531294386  0.7531683472751831   T   T   T
  0.3730012934852702  0.2663934281418784  0.2460025869705399   T   T   T
  0.6242745946332772  0.2496488858728791  0.7485491892665550   T   T   T
  0.7611683126492110  0.7298083892714393  0.0223366252984195   T   T   T
  0.1360902137234508  0.7842060388235564  0.2394453322850274   T   T   T
 -0.0140979560278685  0.7447447037596486  0.4718040879442648   T   T   T
  0.3687146259703603  0.7469985626670764  0.7684559800057594   T   T   T
  0.1227595045792252 -0.0019136222699918  0.7455190091584524   T   T   T
  0.6033551185615772  0.7842060388235564  0.2394453322850274   T   T   T
  0.5005082317704838  0.7812007765793751  0.5010164635409678   T   T   T
  0.8997413540353988  0.7469985626670764  0.7684559800057594   T   T   T
  0.6304390537627401 -0.0034054557526680  0.7608781075254816   T   T   T
  0.7613472489876092  0.2472060153796265  0.0226944979752158   T   T   T
  0.1104018196675181  0.2348271355194117  0.2528158267358692   T   T   T
 -0.0095007098835598  0.2728508738796705  0.4809985802328821   T   T   T
  0.3780994352987892  0.2500647015277147  0.7491570071095258   T   T   T
  0.1331399853830774  0.4945013002680628  0.7662799707661574   T   T   T
  0.2636339973622280  0.2008237893210607  0.0272679947244555   T   T   T
  0.6424140070683519  0.2348271355194117  0.2528158267358692   T   T   T
  0.3394743949081134  0.5182359146325397  0.1789487898162262   T   T   T
  0.4872447829700821  0.2492237009571210  0.4744895659401644   T   T   T
  0.8710575718107362  0.2500647015277147  0.7491570071095258   T   T   T
  0.6205056594591407  0.5034549131355327  0.7410113189182818   T   T   T
