Sr Co O 
 1.0000000000000000
     3.9294977939862341   -0.0003435956511147    3.8679610038535333
    -0.0024260233118980   -8.0162808790546549    0.0059385273790562
     7.7844978635838338   -0.0006894198542735   -7.6636126184217241
 Sr  Co  O  
   8   8  20
Selective dynamics
Direct
 -0.0051906534336103  0.0107825252472264  0.0000526800356767   T   T   T
  0.5088660329963403  0.0212754302055934  0.7513402957096745   T   T   T
  0.0056894489666792  0.0130593140847089  0.4928412350879116   T   T   T
  0.5083006265510148  0.0030032696208085  0.2457076821239305   T   T   T
 -0.0052477358986404  0.4752766883831626 -0.0001919948011095   T   T   T
  0.5090489674149383  0.4644927989448424  0.7516390500890089   T   T   T
  0.0057792983923473  0.4731884662856691  0.4931166065181323   T   T   T
  0.5086179211874554  0.4832756980744999  0.2454757607410080   T   T   T
  0.4911616944447104  0.7431892884010042  0.0093294882853353   T   T   T
  0.0748144593607648  0.7428903210270383  0.7645644463094516   T   T   T
  0.4921184463612005  0.7431763445927434  0.4684378771425689   T   T   T
  0.0035403539928835  0.7429946233884069  0.2413273772316852   T   T   T
  0.5118799756055946  0.2429229742500649 -0.0084281180597029   T   T   T
  0.0054721588215556  0.2427912673636219  0.7450190997725135   T   T   T
  0.5046861785375848  0.2432482542912356  0.5027129105116345   T   T   T
 -0.0094773360180908  0.2432379918567421  0.2561066729424288   T   T   T
  0.2792877823848717  0.7430601047359878  0.1412774645125718   T   T   T
  0.3762007343169961  0.7430260763792195  0.8413224446198668   T   T   T
  0.4732516604753816  0.0139437329372288  0.0083911302474566   T   T   T
 -0.0156357977090417  0.9531688858535359  0.7417107439199001   T   T   T
  0.1774314136011504  0.7427802325452479  0.4025981751015151   T   T   T
  0.5152240418279371 -0.0440050530341623  0.5202472796002907   T   T   T
  0.7135125777123723  0.7431610886300426  0.3316714407669993   T   T   T
  0.8040923465969217  0.7431084030809970  0.0705486803492384   T   T   T
  0.0281116444198589  0.0180837397173002  0.2357215144946870   T   T   T
  0.2409124379866872  0.2426818886596205  0.8754525913289471   T   T   T
  0.4733651135752182  0.4719814767722905  0.0081323700247531   T   T   T
  0.7632146397230263  0.2425287471844451  0.8677921929352905   T   T   T
  0.7571274866704977  0.2428869184529306  0.6248866373808001   T   T   T
 -0.0157780465114872  0.5324740977757253  0.7424628659243279   T   T   T
  0.2537588034524186  0.2431731575624760  0.6229983536609452   T   T   T
  0.2722618144327025  0.2435301408362008  0.3684264971272478   T   T   T
  0.5160750342353516  0.5308916390267562  0.5209466276280833   T   T   T
  0.7502476964059124  0.2435930043044875  0.3832702236485775   T   T   T
  0.7493158887704506  0.2428873085086987  0.1227989267386273   T   T   T
  0.0279624793083888  0.4682391237065174  0.2352929931424870   T   T   T
