Sr Co O 
 1.0000000000000000
    -3.7445225781686782    0.0000000000000000    0.0000000000000000
     0.0000000000000000   -8.0552676996718855   -0.0185398164762139
     0.0000000000000000    4.0639402110363401   15.7067334316885887
 Sr  Co  O  
   8   8  20
Selective dynamics
Direct
 -0.0000000000000000  0.0182864293504684 -0.0051078887111396   T   T   T
 -0.0000000000000000  0.1485499287634132  0.2419661370120501   T   T   T
 -0.0000000000000000  0.2595068613245818  0.4934769204085698   T   T   T
 -0.0000000000000000  0.3789060771879517  0.7585603482364540   T   T   T
 -0.0000000000000000  0.4778204743133747 -0.0026112044972484   T   T   T
 -0.0000000000000000  0.5930533832965647  0.2440795451577428   T   T   T
 -0.0000000000000000  0.7264010369244465  0.5033853929849416   T   T   T
 -0.0000000000000000  0.8805397868382988  0.7506213124373223   T   T   T
  0.4999999999999997  0.8180417486030542  0.1386369042604519   T   T   T
  0.4999999999999997  0.9410904380287861  0.3864386751223633   T   T   T
  0.4999999999999997  0.0599371738758392  0.6257710676349437   T   T   T
  0.4999999999999997  0.1864070637707614  0.8718207147753413   T   T   T
  0.4999999999999997  0.3088384103563776  0.1193973115824087   T   T   T
  0.4999999999999997  0.4355825715281260  0.3708747403998985   T   T   T
  0.4999999999999997  0.5704098256427896  0.6267226072651118   T   T   T
  0.4999999999999997  0.6865481147940212  0.8733578284177305   T   T   T
 -0.0000000000000000  0.8343216615066753  0.1719183063710114   T   T   T
  0.4999999999999997  0.0255189705904919  0.1141857801830197   T   T   T
  0.4999999999999997  0.1370518436641406  0.3541269244138672   T   T   T
  0.4999999999999997  0.0211801688576487  0.5012338378523881   T   T   T
 -0.0000000000000000  0.1238640196235716  0.6222090624466511   T   T   T
  0.4999999999999997  0.1362410434002366  0.7447642744098467   T   T   T
 -0.0000000000000000  0.1829609400029130  0.8708709552016045   T   T   T
  0.4999999999999997  0.4589306971180137  0.8817330931145066   T   T   T
  0.4999999999999997  0.2450109710689856 -0.0028537916388797   T   T   T
 -0.0000000000000000  0.3097229109227032  0.1213105934368126   T   T   T
  0.4999999999999997  0.5858605404966414  0.1167808472670402   T   T   T
  0.4999999999999997  0.3731773672297146  0.2443739990967826   T   T   T
 -0.0000000000000000  0.4372970611217480  0.3733279773359168   T   T   T
  0.4999999999999997  0.7133988037952964  0.3625835483632266   T   T   T
  0.4999999999999997  0.4846498997674333  0.4989362949855370   T   T   T
 -0.0000000000000000  0.5237157856753291  0.6234660842036730   T   T   T
  0.4999999999999997  0.8134390713768734  0.6204058401097923   T   T   T
  0.4999999999999997  0.6050034129802143  0.7474579977582105   T   T   T
 -0.0000000000000000  0.7073463943216409  0.9146693699258075   T   T   T
  0.4999999999999997  0.9163893365993029  0.8711085049029228   T   T   T
