Sr Co O 
 1.0000000000000000
    -3.8663913269158683   -0.0000000000000001   -3.8663913269158638
    -3.8231341447682903    3.9996839563481315    7.6895254716841457
     3.8381563679890269    7.9997003241162918   -3.8381563679890216
 Sr  Co  O  
   8   8  22
Selective dynamics
Direct
  0.0059492315893549 -0.0009178644354767 -0.0040653714657299   T   T   T
  0.6350836813941576  0.2511124622481642  0.8670858846625183   T   T   T
  0.2456568329107362  0.5001314796513395  0.7340917814435632   T   T   T
  0.8738985663548244  0.7500000000000016  0.6249999999999993   T   T   T
  0.4955253532593985 -0.0001314796513381  0.5159082185564355   T   T   T
  0.1339712191459932  0.2488875377518368  0.3829141153374808   T   T   T
  0.7568670960248308  0.5009178644354786  0.2540653714657300   T   T   T
  0.3540048273587262  0.7500000000000017  0.1250000000000001   T   T   T
  0.5551327743410078  0.1329891261659130  0.1824113793254352   T   T   T
  0.1721436481750951  0.3670108738340890  0.0675886206745645   T   T   T
  0.8253427725734309  0.6326272407867825  0.9348915535155897   T   T   T
  0.4384125829713679  0.8712770090383245  0.8127667528930259   T   T   T
  0.0659530756350892  0.1228926559378447  0.6850996236137840   T   T   T
  0.6930604196972447  0.3771073440621562  0.5649003763862153   T   T   T
  0.3171355739330465  0.6287229909616803  0.4372332471069750   T   T   T
  0.9427155317866500  0.8673727592132219  0.3151084464844112   T   T   T
  0.9095430962492430  0.2201402767558985  0.1449489308833088   T   T   T
  0.5199332803961664  0.0001918162215461  0.0288334312283826   T   T   T
  0.4394028194933464  0.2798597232441037  0.1050510691166908   T   T   T
  0.1488510044397533  0.2840347833790802  0.8896289660007110   T   T   T
 -0.0459964765649952  0.5022611788586935  0.0077378178226713   T   T   T
  0.1291847193442998  0.7694265654060670  0.8772626716711549   T   T   T
  0.7560465943352974  0.5024823030218634  0.7530045701569670   T   T   T
  0.5836095552584930  0.7145135604240926  0.8873039489842213   T   T   T
  0.7495622738542030 -0.0128312942777514  0.7663696345105661   T   T   T
  0.3630638792311380  0.7500000000000022  0.6249999999999999   T   T   T
  0.2642763690878904  0.0229338666823125  0.7581646797665025   T   T   T
  0.3870568747943298  0.2635411118942690  0.6174269935009722   T   T   T
  0.0035642913134361 -0.0024823030218627  0.4969954298430316   T   T   T
  0.8735157629000613  0.2364588881057323  0.6325730064990270   T   T   T
 -0.0086574975944223  0.4770661333176890  0.4918353202334972   T   T   T
  0.6148162210606746  0.2159652166209221  0.3603710339992894   T   T   T
  0.5123935681319554  0.5128312942777533  0.4836303654894328   T   T   T
  0.6190959948344019  0.7854864395759112  0.3626960510157790   T   T   T
  0.2697414641746195  0.4998081837784555  0.2211665687716176   T   T   T
  0.1097581539382355  0.7305734345939374  0.3727373283288455   T   T   T
  0.2017423445763137 -0.0022611788586914  0.2422621821773288   T   T   T
  0.8386424697412574  0.7500000000000017  0.1250000000000003   T   T   T
