Sr Co O 
 1.0000000000000000
    -3.6834134718579050    0.0000000000000000    0.0000000000000000
     0.0000000000000000    4.0322293586550249    4.0111116129300735
     0.0000000000000000   16.0608992143977467  -15.9756399119329302
 Sr  Co  O  
   8   8  20
Selective dynamics
Direct
 -0.0000000000000000 -0.0327695767902377 -0.0025345945571776   T   T   T
 -0.0000000000000000  0.4668007807641590  0.8878211082714990   T   T   T
 -0.0000000000000000  0.0296857318656011  0.7595118682501700   T   T   T
 -0.0000000000000000  0.5027261076575642  0.6173548504857161   T   T   T
 -0.0000000000000000  0.0023771983778954  0.4915710142021439   T   T   T
 -0.0000000000000000  0.4997216289593090  0.3678918220044515   T   T   T
 -0.0000000000000000  0.0082018997933950  0.2514870202499835   T   T   T
 -0.0000000000000000  0.5169783164510051  0.1289437309069597   T   T   T
  0.5000000000000004  0.4967952242446515  0.0018723462905469   T   T   T
  0.5000000000000004 -0.0116731768992851  0.8775270943102700   T   T   T
  0.5000000000000004  0.5123351646873628  0.7598956753997139   T   T   T
  0.5000000000000004 -0.0006691892788071  0.6153818894745472   T   T   T
  0.5000000000000004  0.5019001118878323  0.4992927041555112   T   T   T
  0.5000000000000004 -0.0004203988473824  0.3712125987769764   T   T   T
  0.5000000000000004  0.5038156948115466  0.2492329535570364   T   T   T
  0.5000000000000004 -0.0061696009828902  0.1275548117888294   T   T   T
 -0.0000000000000000  0.4516423754519091  0.0138106273815869   T   T   T
  0.5000000000000004  0.2231473349774331  0.9479353204042413   T   T   T
  0.5000000000000004  0.7173708029899960  0.9348857069069126   T   T   T
 -0.0000000000000000 -0.0081455854924719  0.8759239982990328   T   T   T
  0.5000000000000004  0.7878062522858442  0.7993351762772595   T   T   T
  0.5000000000000004  0.2663763542975742  0.8143403542036789   T   T   T
 -0.0000000000000000  0.4815941173507992  0.7258668316157706   T   T   T
 -0.0000000000000000 -0.0064527464548673  0.6471428873381936   T   T   T
  0.5000000000000004  0.7254665382520606  0.5614280958118465   T   T   T
  0.5000000000000004  0.2763468878978692  0.5617550250853700   T   T   T
  0.5000000000000004  0.2714336152781072  0.4446866517851085   T   T   T
  0.5000000000000004  0.7359085602974103  0.4450916002599858   T   T   T
 -0.0000000000000000  0.0038305287247714  0.3788826850867995   T   T   T
  0.5000000000000004  0.7473138141153728  0.3136763935947732   T   T   T
  0.5000000000000004  0.2489717447729049  0.3104856185733082   T   T   T
 -0.0000000000000000  0.5019028582273097  0.2470543065237995   T   T   T
  0.5000000000000004  0.2599169960261655  0.1766982380727618   T   T   T
  0.5000000000000004  0.7697749255464673  0.1874634976798706   T   T   T
 -0.0000000000000000  0.0551679017419546  0.1081690686351162   T   T   T
  0.5000000000000004  0.7509908874708201  0.0638511101721160   T   T   T
