Sr Co O 
 1.0000000000000000
    -4.1109787302488465    0.0030497147623272   -3.8314371393620239
    -4.0906257514013857    3.7695990966716475    7.6363392632268070
     4.1295473232146938    7.6550770812678381   -3.8547841784892198
 Sr  Co  O  
   8   8  20
Selective dynamics
Direct
 -0.0071742508845795 -0.0041132984817496  0.0049390287365560   T   T   T
  0.6375816114251782  0.2739733509076207  0.8724383763326994   T   T   T
  0.2506756422029098  0.4997077276275442  0.7486960920512569   T   T   T
  0.8769465484827202  0.7319622472855787  0.6187793701957739   T   T   T
  0.4810571180822821  0.0102906061190563  0.4854188152377242   T   T   T
  0.1430024799711990  0.2617742832966510  0.3898293150613951   T   T   T
  0.7625295987954511  0.4924311593776640  0.2603393273939255   T   T   T
  0.3406065440810715  0.7275997135513651  0.1302276033447942   T   T   T
  0.5821654506170171  0.1310853842934153  0.1870342381917430   T   T   T
  0.1841535312035312  0.3792925500041982  0.0524049454083739   T   T   T
  0.7980429289232710  0.6302419741079731  0.9367585690705471   T   T   T
  0.4019716388823143  0.8837511420289920  0.8386020545526999   T   T   T
  0.0899522064374869  0.1281080360629574  0.6806823478862257   T   T   T
  0.6930842737379884  0.3747680557312090  0.5686491334091716   T   T   T
  0.3121736358380181  0.6104440853854793  0.4251230704548272   T   T   T
  0.9084173286599683  0.8510941797348450  0.3200134331642593   T   T   T
  0.8893133908694451  0.2327145975941826  0.1562720916775897   T   T   T
  0.5371159849620054  0.0502082902470003 -0.0098297586624265   T   T   T
  0.4760732942227605  0.5033104882545600 -0.0173824869685997   T   T   T
  0.1309323109718531  0.2259196652484672  0.8951743882515200   T   T   T
 -0.0351348289952748  0.5008958454346796  0.0280352801687794   T   T   T
  0.1308236371224873  0.7495463772899076  0.8858079292362501   T   T   T
  0.7730654894066873  0.5029355522686343  0.7510763322307827   T   T   T
  0.6355256340255039  0.7808363986482536  0.8311830018773048   T   T   T
  0.2399032359840385 -0.0292112003456675  0.7144058448541482   T   T   T
  0.3768984604821076  0.2587666276120048  0.6319762721213313   T   T   T
 -0.0063497792460547  0.0102968703756928  0.4671463901519560   T   T   T
  0.8525237477995603  0.2219013068888262  0.6446348073385275   T   T   T
  0.0189093033702184  0.5000733128240047  0.5040774778624725   T   T   T
  0.6136677444674994  0.2469956341504564  0.3729843185537251   T   T   T
  0.5043313183833428  0.5220561885506566  0.5178555638804100   T   T   T
  0.6032978872473306  0.7636120747376469  0.3950167132858275   T   T   T
  0.3016973828172770  0.4634971372300210  0.2390364678011139   T   T   T
  0.1208984412790044  0.7303894636153360  0.3715478365254096   T   T   T
  0.3083979060441817  0.0038832900254294  0.2222993287756396   T   T   T
  0.8229240064642845  0.7789613793590091  0.1287464986436377   T   T   T
