Sr Co O 
 1.0000000000000000
    -3.6944807839359650    0.0000000000000000    0.0000000000000000
     0.0000000000000000    3.9317425142607432    7.9994452099525528
     0.0000000000000000   11.7783079400236019   -7.9911239176634306
 Sr  Co  O  
   8   8  20
Selective dynamics
Direct
 -0.0000000000000000 -0.0156070289911847  0.0050479199040054   T   T   T
 -0.0000000000000000  0.3906070289911840  0.8699520800959949   T   T   T
 -0.0000000000000000  0.7379675824356668  0.7486024851771721   T   T   T
  0.0000000000000000  0.1234325359499698  0.6263174046293875   T   T   T
  0.0000000000000000  0.4953767598106445  0.5070838734253705   T   T   T
 -0.0000000000000000  0.8796232401893537  0.3679161265746307   T   T   T
 -0.0000000000000000  0.2515674640500291  0.2486825953706135   T   T   T
  0.0000000000000000  0.6370324175643322  0.1263975148228300   T   T   T
  0.5000000000000000  0.3097288224275316  0.0587277604003809   T   T   T
  0.5000000000000000  0.6874999999999994  0.9375000000000011   T   T   T
  0.5000000000000000  0.0652711775724684  0.8162722395996205   T   T   T
  0.5000000000000000  0.4355638188141887  0.6865359570152640   T   T   T
  0.5000000000000000  0.8183721130349639  0.5669610642682572   T   T   T
  0.5000000000000000  0.1874999999999997  0.4375000000000004   T   T   T
  0.5000000000000000  0.5566278869650342  0.3080389357317445   T   T   T
  0.5000000000000000  0.9394361811858091  0.1884640429847380   T   T   T
  0.5000000000000000  0.1390766505947174  0.1162871626250963   T   T   T
  0.5000000000000000  0.1875000000000001  0.9375000000000009   T   T   T
  0.5000000000000000  0.4803995931952828  0.0024862957448909   T   T   T
 -0.0000000000000000  0.6874999999999994  0.9375000000000011   T   T   T
  0.5000000000000000  0.5675518568817810  0.8100165683848121   T   T   T
  0.5000000000000000  0.8946004068047154  0.8725137042551111   T   T   T
  0.5000000000000000  0.9493534952276301  0.6972661983172704   T   T   T
  0.5000000000000000  0.2359233494052830  0.7587128373749052   T   T   T
  0.0000000000000000  0.4262471902472282  0.6846231720623975   T   T   T
  0.5000000000000000  0.2946539740296944  0.5562562260478420   T   T   T
  0.5000000000000000  0.6245222714484477  0.6141723291404256   T   T   T
 -0.0000000000000000  0.8021168539456801  0.5391719129834723   T   T   T
  0.5000000000000000  0.0076158848601332  0.4903874316017433   T   T   T
  0.5000000000000000  0.0803460259703057  0.3187437739521595   T   T   T
  0.5000000000000000  0.3673841151398664  0.3846125683982580   T   T   T
  0.0000000000000000  0.5728831460543180  0.3358280870165291   T   T   T
  0.5000000000000000  0.4256465047723688  0.1777338016827316   T   T   T
  0.5000000000000000  0.7504777285515514  0.2608276708595767   T   T   T
 -0.0000000000000000  0.9487528097527713  0.1903768279376045   T   T   T
  0.5000000000000000  0.8074481431182172  0.0649834316151896   T   T   T
