Sr Co O 
 1.0000000000000000
     4.0564524564574462    3.7292659850786887    4.0564524564574445
    -4.0564524564574462    3.7292659850786887   -4.0564524564574445
    -7.9710558243244858    0.0000000000000000    7.9710558243244840
 Sr  Co  O  
   8   8  20
Selective dynamics
Direct
  0.0000000000000000  0.0000000000000000 -0.0033766969495972   T   T   T
  0.2379430260207468  0.7379430260207457  0.2688529651514270   T   T   T
  0.5000000000000010  0.4999999999999999  0.5113191597028097   T   T   T
  0.7591732733724449  0.2591732733724458  0.7307776352331771   T   T   T
  0.5000000000000007  0.5000000000000002 -0.0033766969495967   T   T   T
  0.7620569739792540  0.2620569739792537  0.2688529651514275   T   T   T
  0.0000000000000002 -0.0000000000000001  0.5113191597028096   T   T   T
  0.2408267266275549  0.7408267266275547  0.7307776352331773   T   T   T
  0.5000000000000007  0.0000000000000001 -0.0371577799756953   T   T   T
  0.7594207678472316  0.7405792321527688  0.2599647812348100   T   T   T
 -0.0000000000000000  0.4999999999999996  0.5023335126634353   T   T   T
  0.2456536147731251  0.2543463852268755  0.7516140491193708   T   T   T
  0.0000000000000003  0.5000000000000000 -0.0009294341355547   T   T   T
  0.2405792321527692  0.2594207678472312  0.2599647812348096   T   T   T
  0.5000000000000002  0.0000000000000011  0.5011665263415129   T   T   T
  0.7543463852268755  0.7456536147731243  0.7516140491193715   T   T   T
  0.3579397459092983  0.1420602540907025  0.9144042451215184   T   T   T
  0.6234246449803781  0.8765753550196214  0.3530623397133007   T   T   T
  0.5000000000000004  0.5000000000000003  0.2210731398065372   T   T   T
  0.8763478398369973  0.6236521601630031  0.3749854656542914   T   T   T
  0.8750927402953225  0.6249072597046769  0.6250993987163337   T   T   T
  0.7488136374834059  0.2488136374834059  0.4973124768679701   T   T   T
  0.1249072597046760  0.3750927402953237  0.6250993987163340   T   T   T
  0.1118024649415671  0.3881975350584334  0.8836352277188548   T   T   T
 -0.0000000000000004  0.0000000000000005  0.7602008453734871   T   T   T
  0.8881975350584326  0.6118024649415670  0.8836352277188557   T   T   T
  0.8851456020993138  0.6148543979006867  0.1134702456266244   T   T   T
  0.1148543979006869  0.3851456020993135  0.1134702456266239   T   T   T
  0.1236521601630031  0.3763478398369968  0.3749854656542910   T   T   T
 -0.0000000000000003  0.0000000000000003  0.2210731398065367   T   T   T
  0.3765753550196218  0.1234246449803786  0.3530623397133003   T   T   T
  0.3748756969710856  0.1251243030289153  0.6298983022746668   T   T   T
  0.2511863625165946  0.7511863625165943  0.4973124768679698   T   T   T
  0.6251243030289148  0.8748756969710850  0.6298983022746670   T   T   T
  0.6420602540907028  0.8579397459092966  0.9144042451215177   T   T   T
  0.5000000000000000  0.5000000000000002  0.7602008453734874   T   T   T
