Sr Co O 
 1.0000000000000000
     3.8251149630824508    0.0000000000000000    0.0000000000000000
     0.0000000000000000    3.6784256103496613    0.0000000000000000
     0.0000000000000000    0.0000000000000000   24.9965337058227348
 Sr  Co  O  
   6   6  13
Selective dynamics
Direct
  0.0000000000000000  0.0000000000000000 -0.0082276159373286   T   T   T
  0.0000000000000000  0.0000000000000000  0.1803186434493301   T   T   T
  0.0000000000000000  0.0000000000000000  0.3368653666721068   T   T   T
  0.0000000000000000  0.0000000000000000  0.4947291126831566   T   T   T
  0.0000000000000000  0.0000000000000000  0.6710072994131128   T   T   T
  0.0000000000000000  0.0000000000000000  0.8300334567654254   T   T   T
  0.5000000000000002  0.4999999999999999  0.0970363597208572   T   T   T
  0.5000000000000002  0.4999999999999999  0.2569841264520657   T   T   T
  0.5000000000000002  0.4999999999999999  0.4146876353609009   T   T   T
  0.5000000000000002  0.4999999999999999  0.5743614794428905   T   T   T
  0.5000000000000002  0.4999999999999999  0.7527553721529082   T   T   T
  0.5000000000000002  0.4999999999999999  0.9101528694360336   T   T   T
  0.5000000000000002  0.4999999999999999  0.0278549971855395   T   T   T
  0.5000000000000002  0.4999999999999999  0.1701323469806017   T   T   T
  0.0000000000000000  0.4999999999999999  0.2530845483415019   T   T   T
  0.5000000000000002  0.4999999999999999  0.3349061943280521   T   T   T
  0.0000000000000000  0.4999999999999999  0.4137407090102005   T   T   T
  0.5000000000000002  0.4999999999999999  0.4918721731408857   T   T   T
  0.5000000000000002  0.0000000000000000  0.5681672200613596   T   T   T
  0.5000000000000002  0.4999999999999999  0.6461172238338839   T   T   T
  0.0000000000000000  0.4999999999999999  0.7447748564262144   T   T   T
  0.5000000000000002  0.0000000000000000  0.7426362040590664   T   T   T
  0.5000000000000002  0.4999999999999999  0.8325946782744378   T   T   T
  0.0000000000000000  0.4999999999999999  0.9214358743621467   T   T   T
  0.5000000000000002  0.0000000000000000  0.9253121866011438   T   T   T
