Sr Co O 
 1.0000000000000000
    -3.9205496547055563   -0.0647566215580258   -3.9667828791974293
    -0.0790142475949261   -4.0979118603455724   -3.9542685533627853
   -11.9378056421639176  -12.5333976496241402    7.9126230901775072
 Sr  Co  O  
   8   8  21
Selective dynamics
Direct
 -0.0377880823348192  0.0635332236579046 -0.0069775775819383   T   T   T
  0.6211950059010520  0.6284570951151249  0.1259935882392132   T   T   T
  0.2370798214691412  0.2337954660709500  0.2695927687412841   T   T   T
  0.8694249643337317  0.9008670591892960  0.3926567525047554   T   T   T
  0.5004454377325503  0.5048242423857748  0.5102641453098775   T   T   T
  0.1395569856643210  0.1086190766050274  0.6177773426844444   T   T   T
  0.7761323186075761  0.7143237274860595  0.7337963074645303   T   T   T
  0.3646535535277194  0.3864492877237646  0.8578806717379901   T   T   T
  0.5946087065085792  0.7238895079980321  0.9299752509528026   T   T   T
  0.3216924712155259  0.3596970105410648  0.0795030102285780   T   T   T
  0.8859419002148937  0.8964990590646357  0.1935250412836133   T   T   T
  0.5668399356695772  0.5839640105277518  0.3350629148377430   T   T   T
  0.1876805939988078  0.2036828680019880  0.4446101802984017   T   T   T
  0.8261675617748866  0.8072393139112747  0.5632497783482101   T   T   T
  0.4516467263186984  0.4142233082757162  0.6837916231209578   T   T   T
  0.0994026125567810  0.0398358972642990  0.7924865698186264   T   T   T
  0.5857933116257590  0.0088995882101478 -0.0441447596267857   T   T   T
  0.4389957216332028  0.5737384912106027  0.0159732242691242   T   T   T
  0.6713507265064362  0.0458785684041724  0.1116424601950278   T   T   T
  0.2035069179661825  0.5756724688885170  0.1627447225737674   T   T   T
  0.0718126978356877  0.2618262216109716  0.0802794847620800   T   T   T
  0.8816662785383739  0.0947381743103144  0.2540001451568047   T   T   T
  0.6517249548858648  0.7333661994003511  0.2456483353472065   T   T   T
  0.8925235735048264  0.3548668627888825  0.3822360114688516   T   T   T
  0.4059896739824360  0.8909278492747976  0.3824355077941843   T   T   T
  0.3427751433726876  0.4365972003013482  0.3637901692060566   T   T   T
  0.4878579652484268  0.0662093216163387  0.4990722298726247   T   T   T
 -0.0411736080818644  0.5351091645064243  0.5025405053987338   T   T   T
  0.0402327089553387 -0.0209269123807456  0.5057768147613391   T   T   T
  0.1400422926786351  0.5506086113662133  0.6255724493721690   T   T   T
  0.6751486199082618  0.0762151047232819  0.6241952793312834   T   T   T
  0.6022724739367874  0.6121903559803458  0.6260884408894780   T   T   T
  0.7628315063992920  0.2561376744281047  0.7564429981796924   T   T   T
  0.2192096333991352  0.7361627854750243  0.7447242906649187   T   T   T
  0.3177968774561249  0.1999464235109781  0.7507176692533254   T   T   T
  0.2514448588537119  0.8572537579679398  0.8791686307355595   T   T   T
  0.8685170266976239  0.4596819404962776  0.8829069428520786   T   T   T
