Sr Co O 
 1.0000000000000000
    -3.9985987324331798   -0.0262128409902956   -3.9478337962738470
    -4.0633144842935378   -7.6877173458509196    3.9593578544506727
    -4.0158183883262799    7.6919246677973501    4.0185423613897049
 Sr  Co  O  
   8   8  20
Selective dynamics
Direct
  0.0011693160276259  0.0032242151357750 -0.0034813731570042   T   T   T
  0.5035522842562956  0.2546926290443938  0.2375656707617208   T   T   T
 -0.0256571902465957  0.5086823473543628  0.5143085021223205   T   T   T
  0.5006092719571674  0.7536200656742610  0.7678666196208707   T   T   T
  0.5227072637519032 -0.0241185171484043  0.5015037892711849   T   T   T
 -0.0156921086912378  0.2726453361952511  0.7686299974026937   T   T   T
  0.4984362524159514  0.5231225283211415  0.0097127026351473   T   T   T
 -0.0020894780190779  0.7408876864742351  0.2262848032279209   T   T   T
  0.5082425394311537  0.8770013909977367  0.1364548852255164   T   T   T
  0.0072845911724290  0.0858371613328759  0.3702109251579183   T   T   T
  0.4798080056455228  0.4003587494124172  0.6478065463023303   T   T   T
 -0.0059955547959982  0.6371663914638741  0.8751832575344355   T   T   T
  0.0114583062018873  0.8975053214686047  0.6538516742063077   T   T   T
  0.4916589442461578  0.1434552057159234  0.8620512531882710   T   T   T
 -0.0003376377219460  0.3863378454125543  0.1175446179517560   T   T   T
  0.5041531188857118  0.5997522576792522  0.3630167208846091   T   T   T
  0.7569852436468985  0.7786988410834288 -0.0122119597742604   T   T   T
  0.7413069330226055  0.0170284106644528  0.2338342445535385   T   T   T
  0.2600679344267713  0.0366635060153816  0.2443629774131541   T   T   T
  0.9050780944868938  0.2471590743735187  0.4979717611089786   T   T   T
  0.7361504063610170  0.5043824815214444  0.7472104521518299   T   T   T
  0.4302726278839310  0.4462322438927823  0.4786972440060807   T   T   T
  0.2389516649562687  0.5047749706781152  0.7741775034404367   T   T   T
  0.2679411077459371  0.7804048756802267  0.0142627968187158   T   T   T
  0.0325053633857203  0.7425194514444007  0.7276358752893388   T   T   T
  0.2803546670858038 -0.0060923093743621  0.7750444115047878   T   T   T
  0.0562606980885371 -0.0666950071621700  0.4745997788016241   T   T   T
  0.7573567041649638  0.0116006380728955  0.7513761891800795   T   T   T
  0.7141874668610650  0.2456345576355495 -0.0044475403933118   T   T   T
  0.4493517277830609  0.2275497141014497  0.6910667239994287   T   T   T
  0.2229677709631751  0.2487521337099659  0.0152058797611276   T   T   T
  0.2533339945799997  0.5155254341989227  0.2486011907759473   T   T   T
 -0.0414733848421736  0.5204250483421734  0.0057557006809369   T   T   T
  0.7783879708805989  0.4658735658506676  0.2644762216406321   T   T   T
  0.6429164939716948  0.7221584531763149  0.5174329122714543   T   T   T
  0.5377883828051838  0.7472333048889657  0.2564371810352252   T   T   T
