Sr Co O 
 1.0000000000000000
     3.6983794954657991    0.0000000000000000    0.0000000000000000
     0.0000000000000000    8.0340672231271171   -0.0420786101695718
     0.0000000000000000   -0.0826585368019038   15.7735606911191137
 Sr  Co  O  
   8   8  20
Selective dynamics
Direct
  0.0000000000000000  0.0179546387409238 -0.0031065642274106   T   T   T
  0.0000000000000000 -0.0157744208570503  0.2365718004484932   T   T   T
  0.0000000000000000 -0.0149348826771451  0.5077068541180170   T   T   T
  0.0000000000000000 -0.0069791605044090  0.7559790303028170   T   T   T
  0.0000000000000000  0.4886044540876985 -0.0015945057420039   T   T   T
  0.0000000000000000  0.5237826484414824  0.2452593208308657   T   T   T
  0.0000000000000000  0.5218651708298706  0.4993592925152449   T   T   T
  0.0000000000000000  0.5046747810859357  0.7548978142748752   T   T   T
  0.4999999999999997  0.2554561956478107  0.1199633886194734   T   T   T
  0.4999999999999997  0.2568843100066479  0.3862198597051258   T   T   T
  0.4999999999999997  0.2472818870020169  0.6252819420897040   T   T   T
  0.4999999999999997  0.2534350054291890  0.8724715202357682   T   T   T
  0.4999999999999997  0.7510784866545849  0.1237758304005429   T   T   T
  0.4999999999999997  0.7412321770502955  0.3738551185931812   T   T   T
  0.4999999999999997  0.7463849414923918  0.6266485752026973   T   T   T
  0.4999999999999997  0.7506822608014441  0.8714754642821100   T   T   T
  0.4999999999999997  0.2532965318840706  0.0001179834965605   T   T   T
  0.0000000000000000  0.2571941537909297  0.1555826225334351   T   T   T
  0.4999999999999997  0.0073669250914649  0.1221135987779501   T   T   T
  0.0000000000000000  0.1878182364540803  0.3614326002439018   T   T   T
  0.4999999999999997  0.2209308776950724  0.5069022611217374   T   T   T
  0.4999999999999997  0.0183482699824385  0.6318084210785960   T   T   T
  0.4999999999999997  0.2635766950417120  0.7404665201115154   T   T   T
  0.0000000000000000  0.2511881344803847  0.8699458630871552   T   T   T
  0.4999999999999997 -0.0127402664161663  0.8784758814530503   T   T   T
  0.0000000000000000  0.7538926577327945  0.0998400025344429   T   T   T
  0.4999999999999997  0.5029884106728238  0.1257259990498228   T   T   T
  0.4999999999999997  0.7682845566039517  0.2515958045413420   T   T   T
  0.0000000000000000  0.7852928616763918  0.3741726625773715   T   T   T
  0.4999999999999997  0.4854894726733741  0.3623750508176700   T   T   T
  0.4999999999999997  0.7559744987035857  0.4960805810575734   T   T   T
  0.0000000000000000  0.7449688844905232  0.6254446659079456   T   T   T
  0.4999999999999997  0.4738037940506482  0.6143904466574156   T   T   T
  0.4999999999999997  0.7420342235444888  0.7518031659808037   T   T   T
  0.0000000000000000  0.7524119676988765  0.9040751984299487   T   T   T
  0.4999999999999997  0.5162503820955512  0.8828860178761216   T   T   T
