Sr Co O 
 1.0000000000000000
    -3.6507893975953536    0.0000000000000000    0.0000000000000000
     0.0000000000000000    4.1386282364056459    3.9963089617149627
     0.0000000000000000   16.7145243671976438  -16.1445858310054930
 Sr  Co  O  
   8   8  20
Selective dynamics
Direct
 -0.0000000000000000 -0.0679906950350644  0.0036135014665472   T   T   T
 -0.0000000000000000  0.4748382871556673  0.8784062538640464   T   T   T
 -0.0000000000000000 -0.1081904214420858  0.7466508105760862   T   T   T
 -0.0000000000000000  0.5159871666311261  0.6113010977965254   T   T   T
 -0.0000000000000000  0.0194521990473064  0.4912082262617560   T   T   T
 -0.0000000000000000  0.5366696315903978  0.3743593573132063   T   T   T
 -0.0000000000000000  0.0565439996041320  0.2593419309807105   T   T   T
 -0.0000000000000000  0.5483125195589426  0.1357202826573319   T   T   T
  0.5000000000000002  0.4681348318810727 -0.0035900728881950   T   T   T
  0.5000000000000002 -0.0155695826266343  0.8850659689608589   T   T   T
  0.5000000000000002  0.4337612932107290  0.7466540748615157   T   T   T
  0.5000000000000002  0.0036247444893185  0.6120965013032849   T   T   T
  0.5000000000000002  0.5205949423644305  0.4940171896992509   T   T   T
  0.5000000000000002  0.0360634148351184  0.3747166308306162   T   T   T
  0.5000000000000002  0.5530240503000560  0.2542507031443893   T   T   T
  0.5000000000000002  0.0554259828291162  0.1360919570618971   T   T   T
  0.5000000000000002  0.1968891546839833  0.9572788196871073   T   T   T
  0.5000000000000002  0.6963833832021521  0.9340533007728813   T   T   T
 -0.0000000000000000  0.0420117625598613  0.8556260476416938   T   T   T
  0.5000000000000002  0.6029205476738373  0.8088274566395830   T   T   T
  0.5000000000000002  0.1506686395764568  0.7270353225787286   T   T   T
  0.5000000000000002  0.6355119187670880  0.6884914180848652   T   T   T
 -0.0000000000000000 -0.0052871836816920  0.6339732698906023   T   T   T
  0.5000000000000002  0.7693027203145495  0.5586285063163140   T   T   T
  0.5000000000000002  0.2723884696780957  0.5654784626244099   T   T   T
 -0.0000000000000000  0.5198411371044747  0.4983521262824168   T   T   T
  0.5000000000000002  0.2735007452688563  0.4379244332653727   T   T   T
  0.5000000000000002  0.7749568139200232  0.4346816114172651   T   T   T
 -0.0000000000000000  0.0381548045392347  0.3742381322079920   T   T   T
  0.5000000000000002  0.8006240705972059  0.3106348641878209   T   T   T
  0.5000000000000002  0.2989225789359879  0.3128257078085435   T   T   T
 -0.0000000000000000  0.5522362226165646  0.2488681933889365   T   T   T
  0.5000000000000002  0.3028741961615322  0.1853164107481227   T   T   T
  0.5000000000000002  0.8037637536802499  0.1843963221432600   T   T   T
 -0.0000000000000000  0.0899345579722849  0.1015800307347480   T   T   T
  0.5000000000000002  0.6537185774286806  0.0568849677783432   T   T   T
