Sr Co O 
 1.0000000000000000
     3.9921688107594444    0.0000000000000000    4.0143216215384019
    -0.0000000000000000   -7.4927568941759812   -0.0000000000000000
     8.0605752033232143   -0.0000000000000000   -8.1052720800304172
 Sr  Co  O  
   8   8  20
Selective dynamics
Direct
 -0.0347680531979074 -0.0047748862420966 -0.0110687991703249   T   T   T
  0.4864976559139700  0.0014427450700067  0.7405443324575534   T   T   T
 -0.0044659530507586  0.0026056079265064  0.5187366587479392   T   T   T
  0.5560105013459714  0.0009612490355075  0.2609576160316529   T   T   T
 -0.0347680531979074  0.5047748862420965 -0.0110687991703249   T   T   T
  0.4864976559139700  0.4985572549299934  0.7405443324575534   T   T   T
 -0.0044659530507586  0.4973943920734932  0.5187366587479392   T   T   T
  0.5560105013459714  0.4990387509644916  0.2609576160316529   T   T   T
  0.4893881175599004  0.7499999999999996  0.0053397971952928   T   T   T
 -0.0108770516479060  0.7499999999999996  0.7577571018498136   T   T   T
  0.5003853788513221  0.7499999999999996  0.5242082357560711   T   T   T
  0.0253743236100560  0.7499999999999996  0.2249220919291136   T   T   T
  0.4834888305583912  0.2499999999999999 -0.0164820807059691   T   T   T
 -0.0141282127272083  0.2499999999999999  0.7503497367978413   T   T   T
  0.5015008081771100  0.2499999999999999  0.4997189107323697   T   T   T
  0.0356667396541918  0.2499999999999999  0.2733753936211362   T   T   T
  0.3108173084396283  0.7499999999999996  0.1452565200902319   T   T   T
  0.2292362477620418  0.7499999999999996  0.9098209518529341   T   T   T
  0.6923714568877071  0.7499999999999996  0.8797387677177966   T   T   T
  0.7560033290091329  0.7499999999999996  0.6273631488945054   T   T   T
 -0.0102350374826442  0.0003347593301520  0.7590884257296250   T   T   T
  0.2449232091561337  0.7499999999999996  0.6319645033175627   T   T   T
  0.4861607224322254 -0.0222554474288752  0.4824547584838944   T   T   T
  0.8700182816110683  0.7499999999999996  0.3615179302106968   T   T   T
  0.7513924886624920  0.7499999999999996  0.1069517769501342   T   T   T
  0.0377365447897306  0.0273708527708594  0.2096163886586299   T   T   T
  0.2148417361414906  0.2499999999999999  0.9051558035775966   T   T   T
  0.7106903256801742  0.2499999999999999  0.8751474438825606   T   T   T
  0.7260748137815689  0.2499999999999999  0.6218533772983106   T   T   T
 -0.0102350374826442  0.4996652406698476  0.7590884257296250   T   T   T
  0.2418934499595406  0.2499999999999999  0.6258061791053132   T   T   T
  0.3023290715623762  0.2499999999999999  0.3674434806943386   T   T   T
  0.4861607224322254  0.5222554474288745  0.4824547584838944   T   T   T
  0.7881946158108266  0.2499999999999999  0.3818013659830692   T   T   T
  0.6165421981031101  0.2499999999999999  0.1203308898509002   T   T   T
  0.0377365447897306  0.4726291472291402  0.2096163886586299   T   T   T
