Sr Co O 
 1.0000000000000000
     3.9100568440603545   -0.0000000000000000    3.9100568440603540
     3.9444979493464136   -3.8454752057042336   -3.9444979493464198
     3.9745485939406442   11.5967244066525659   -3.9745485939406437
 Sr  Co  O  
   8   8  22
Selective dynamics
Direct
 -0.0000000000000000  0.0029989637286475 -0.0085816498121490   T   T   T
  0.4999999999999985  0.6114751907320609  0.8613541706343073   T   T   T
 -0.0000000000000010  0.2386187659749901  0.7361206956044829   T   T   T
  0.4999999999999976  0.8751942028902473  0.6209318383166026   T   T   T
 -0.0000000000000009  0.4998057971097539  0.5040681616833961   T   T   T
  0.4999999999999989  0.1363812340250100  0.3888793043955167   T   T   T
 -0.0000000000000011  0.7635248092679406  0.2636458293656906   T   T   T
  0.4999999999999986  0.3720010362713530  0.1335816498121485   T   T   T
  0.4999999999999981  0.9190954118827026  0.1367697532103906   T   T   T
 -0.0000000000000006  0.4559045881172983 -0.0117697532103921   T   T   T
  0.4999999999999991  0.1094345639774822  0.8702390452650276   T   T   T
 -0.0000000000000008  0.7524587548288771  0.7497002281644295   T   T   T
  0.4999999999999981  0.3749914049828933  0.6269531093996956   T   T   T
  0.0000000000000000  0.0000085950171068  0.4980468906003038   T   T   T
  0.4999999999999974  0.6225412451711247  0.3752997718355698   T   T   T
 -0.0000000000000003  0.2655654360225173  0.2547609547349725   T   T   T
  0.2326416953595352  0.0749999261465722  0.1784318984344827   T   T   T
  0.4999999999999989 -0.0746195038857327 -0.0012379746668635   T   T   T
  0.7326416953595347  0.3000000738534300  0.9465681015655170   T   T   T
 -0.0000000000000004  0.6432081134957449  0.9058300369787445   T   T   T
  0.2673583046404630  0.3000000738534292  0.9465681015655155   T   T   T
  0.2451595528922562  0.9398240251288533  0.8083398536247939   T   T   T
  0.4999999999999984  0.2589907246058346  0.7456276338132267   T   T   T
  0.7548404471077395  0.9398240251288531  0.8083398536247941   T   T   T
  0.7610860802281146  0.5674931747225789  0.6973843604474943   T   T   T
 -0.0000000000000014  0.8703002066974069  0.6106066878247961   T   T   T
  0.2389139197718817  0.5674931747225771  0.6973843604474941   T   T   T
  0.2499999999999996  0.1875000000000001  0.5624999999999998   T   T   T
  0.4999999999999990  0.5046997933025942  0.5143933121752026   T   T   T
  0.7499999999999976  0.1875000000000000  0.5624999999999997   T   T   T
  0.7389139197718808  0.8075068252774229  0.4276156395525045   T   T   T
 -0.0000000000000007  0.1160092753941656  0.3793723661867725   T   T   T
  0.2610860802281147  0.8075068252774231  0.4276156395525045   T   T   T
  0.2548404471077415  0.4351759748711483  0.3166601463752048   T   T   T
  0.4999999999999987  0.7317918865042563  0.2191699630212547   T   T   T
  0.7451595528922559  0.4351759748711486  0.3166601463752051   T   T   T
  0.7673583046404627  0.0749999261465725  0.1784318984344831   T   T   T
 -0.0000000000000006  0.4496195038857329  0.1262379746668630   T   T   T
