Sr Co O 
 1.0000000000000000
     3.7885160665181368    4.0129542792333313    0.0000000000000000
     3.7885160665181368   -4.0129542792333313    0.0000000000000000
     0.0000000000000000    0.0000000000000000  -15.2684205260442791
 Sr  Co  O  
   8   8  20
Selective dynamics
Direct
  0.0043458526799002 -0.0043458526799002  0.0026413669866910   T   T   T
  0.0054809598986567 -0.0054809598986568  0.7534977567983603   T   T   T
 -0.0054809598986568  0.0054809598986568  0.4965022432016388   T   T   T
 -0.0043458526799002  0.0043458526799002  0.2473586330133087   T   T   T
  0.4956541473201007  0.5043458526799002  0.0026413669866910   T   T   T
  0.4945190401013442  0.5054809598986567  0.7534977567983603   T   T   T
  0.5054809598986577  0.4945190401013432  0.4965022432016388   T   T   T
  0.5043458526799012  0.4956541473200998  0.2473586330133087   T   T   T
  0.4941454438313320 -0.0058545561686679  0.8726194863190981   T   T   T
  0.5000000000000003  0.0000000000000003  0.6249999999999997   T   T   T
  0.5058545561686684  0.0058545561686684  0.3773805136809015   T   T   T
  0.5000000000000003  0.0000000000000003  0.1249999999999999   T   T   T
  0.0058545561686689  0.5058545561686679  0.8726194863190981   T   T   T
  0.0000000000000007  0.4999999999999997  0.6249999999999997   T   T   T
 -0.0058545561686676  0.4941454438313315  0.3773805136809015   T   T   T
  0.0000000000000007  0.4999999999999997  0.1249999999999999   T   T   T
  0.5380329617863353  0.0380329617863353 -0.0118161064175606   T   T   T
  0.2500000000000012  0.7499999999999997  0.8604433170813862   T   T   T
  0.2500000000000006  0.2500000000000001  0.8696668410746217   T   T   T
  0.5379237321293667  0.0379237321293668  0.7457972055886521   T   T   T
  0.2500000000000006  0.2500000000000001  0.6249999999999997   T   T   T
  0.4620762678706335 -0.0379237321293665  0.5042027944113477   T   T   T
  0.2500000000000006  0.2500000000000001  0.3803331589253773   T   T   T
  0.4619670382136647 -0.0380329617863353  0.2618161064175601   T   T   T
  0.2500000000000012  0.7499999999999997  0.1116477728403371   T   T   T
  0.2500000000000006  0.2500000000000001  0.1249999999999999   T   T   T
 -0.0380329617863350  0.4619670382136642 -0.0118161064175606   T   T   T
  0.7500000000000010  0.7499999999999996  0.8696668410746217   T   T   T
 -0.0379237321293662  0.4620762678706330  0.7457972055886520   T   T   T
  0.7500000000000010  0.7499999999999996  0.6249999999999997   T   T   T
  0.0379237321293672  0.5379237321293662  0.5042027944113477   T   T   T
  0.7500000000000007  0.2500000000000003  0.3895566829186122   T   T   T
  0.7500000000000010  0.7499999999999996  0.3803331589253774   T   T   T
  0.0380329617863356  0.5380329617863348  0.2618161064175601   T   T   T
  0.7500000000000007  0.2500000000000003  0.1383522271596625   T   T   T
  0.7500000000000010  0.7499999999999996  0.1249999999999999   T   T   T
