Sr Co O 
 1.0000000000000000
     3.7410084998710742    0.0000000000000000    0.0000000000000000
     0.0000000000000000    3.8336927533353680    0.0000000000000000
     0.0000000000000000    0.0000000000000000   24.3085827016011642
 Sr  Co  O  
   6   6  13
Selective dynamics
Direct
  0.0000000000000000  0.0000000000000000 -0.0106663486357472   T   T   T
  0.0000000000000000  0.0000000000000000  0.1698519953300635   T   T   T
  0.0000000000000000  0.0000000000000000  0.3431985723845847   T   T   T
  0.0000000000000000  0.0000000000000000  0.4975019582461542   T   T   T
  0.0000000000000000  0.0000000000000000  0.6681577609222815   T   T   T
  0.0000000000000000  0.0000000000000000  0.8356326489863255   T   T   T
  0.4999999999999999  0.5000000000000003  0.0840973667198275   T   T   T
  0.4999999999999999  0.5000000000000003  0.2486205190989801   T   T   T
  0.4999999999999999  0.5000000000000003  0.4218220694665074   T   T   T
  0.4999999999999999  0.5000000000000003  0.5878932699412354   T   T   T
  0.4999999999999999  0.5000000000000003  0.7488537040696112   T   T   T
  0.4999999999999999  0.5000000000000003  0.9101244965662411   T   T   T
  0.4999999999999999  0.0000000000000000  0.0652975140703681   T   T   T
  0.4999999999999999  0.5000000000000003  0.1626871046315263   T   T   T
  0.0000000000000000  0.5000000000000003  0.2416672572425525   T   T   T
  0.4999999999999999  0.5000000000000003  0.3232518030841298   T   T   T
  0.0000000000000000  0.5000000000000003  0.4196401033752548   T   T   T
  0.4999999999999999  0.0000000000000000  0.4185892223830243   T   T   T
  0.4999999999999999  0.5000000000000003  0.5124229692350748   T   T   T
  0.4999999999999999  0.0000000000000000  0.5901686517171477   T   T   T
  0.4999999999999999  0.5000000000000003  0.6687003330956408   T   T   T
  0.4999999999999999  0.0000000000000000  0.7490898985173634   T   T   T
  0.4999999999999999  0.5000000000000003  0.8267251360050144   T   T   T
  0.0000000000000000  0.5000000000000003  0.9305054556552925   T   T   T
  0.4999999999999999  0.0000000000000000  0.9194998601746539   T   T   T
