Sr Co O 
 1.0000000000000000
     3.7006511709305925    0.0000000000000000    0.0000000000000000
     0.0000000000000000   -8.2433610931750234    7.8465293439053543
     0.0000000000000000   -4.0741539821364885  -11.7157736560997972
 Sr  Co  O  
   8   8  20
Selective dynamics
Direct
  0.0000000000000000  0.0032582288024495  0.0007239333954462   T   T   T
  0.0000000000000000  0.1408145484207842  0.7775082722618342   T   T   T
  0.0000000000000000  0.2554154789116479  0.4968124410323534   T   T   T
  0.0000000000000000  0.3942722787566762  0.2640999990508375   T   T   T
  0.0000000000000000  0.5140732046282628  0.0072192624297585   T   T   T
  0.0000000000000000  0.5938544691667363  0.7383812999868857   T   T   T
  0.0000000000000000  0.7226105075015044  0.4952604083631996   T   T   T
  0.0000000000000000  0.8768556752230061  0.2338768809719554   T   T   T
  0.5000000000000006  0.8759093237029005  0.7361705975670340   T   T   T
  0.5000000000000006 -0.0011216923407816  0.4921203147966533   T   T   T
  0.5000000000000006  0.1251005742785272  0.2491245223640220   T   T   T
  0.5000000000000006  0.2782752340314003  0.0157732657866888   T   T   T
  0.5000000000000006  0.3727000755746988  0.7557769140171566   T   T   T
  0.5000000000000006  0.4886009861747223  0.4982580833485040   T   T   T
  0.5000000000000006  0.6339249229729822  0.2565462379331854   T   T   T
  0.5000000000000006  0.7474924303709651 -0.0049216978908677   T   T   T
  0.0000000000000000  0.8955383487603138  0.7028963373781357   T   T   T
  0.5000000000000006  0.0274331676154848  0.8677360827921877   T   T   T
  0.5000000000000006  0.1351274634788865  0.6276368817778970   T   T   T
  0.5000000000000006  0.0551748750432994  0.3764516761926027   T   T   T
  0.0000000000000000  0.1337354380962011  0.2271517869820512   T   T   T
  0.5000000000000006  0.3040854908044662  0.3610242088230180   T   T   T
  0.0000000000000000  0.2380347177096496  0.0297893527836911   T   T   T
  0.5000000000000006  0.4476058841524891  0.1355084582522727   T   T   T
  0.5000000000000006  0.3106900766692450  0.8819146979433573   T   T   T
  0.0000000000000000  0.3588590696583986  0.7463998209508103   T   T   T
  0.5000000000000006  0.5647057369894788  0.8765572948756460   T   T   T
  0.5000000000000006  0.4139199141199328  0.6162689703107985   T   T   T
  0.0000000000000000  0.4965645184246609  0.5048406513646649   T   T   T
  0.5000000000000006  0.7011799651144197  0.6549327019756614   T   T   T
  0.5000000000000006  0.5647738922381239  0.3827011762973110   T   T   T
  0.0000000000000000  0.6452637296675864  0.2580663812688216   T   T   T
  0.5000000000000006  0.8294492635865840  0.4156201251282837   T   T   T
  0.5000000000000006  0.7049617428290197  0.1277241609319309   T   T   T
  0.0000000000000000  0.7671068107264946 -0.0455254856958220   T   T   T
  0.5000000000000006  0.9462536365207428  0.1145737972166676   T   T   T
