Sr Co O 
 1.0000000000000000
    -3.6805224365035611    0.0000000000000000    0.0000000000000000
     0.0000000000000000    4.0488600041002432    8.0528666727615761
     0.0000000000000000   12.1663520530998674   -8.0620037946291934
 Sr  Co  O  
   8   8  20
Selective dynamics
Direct
 -0.0000000000000000 -0.0217033098623983  0.0055281718645070   T   T   T
 -0.0000000000000000  0.3789826661396812  0.8642959394047487   T   T   T
 -0.0000000000000000  0.7512369665511617  0.7458016551420057   T   T   T
 -0.0000000000000000  0.0899845024859373  0.6160604034203973   T   T   T
 -0.0000000000000000  0.5115232760317674  0.4835280224971871   T   T   T
 -0.0000000000000000  0.8733745395170607  0.3745924490989287   T   T   T
 -0.0000000000000000  0.2521389546808869  0.2603933261575748   T   T   T
 -0.0000000000000000  0.6543008729591075  0.1384183946960582   T   T   T
  0.5000000000000001  0.3055686470633382  0.0706386814290311   T   T   T
  0.5000000000000001  0.6870710854600440  0.9394111244100832   T   T   T
  0.5000000000000001  0.0385693802614045  0.8084280948544583   T   T   T
  0.5000000000000001  0.4520185914843422  0.6886474188603621   T   T   T
  0.5000000000000001  0.8020620407284368  0.5573509705336488   T   T   T
  0.5000000000000001  0.1839273811246214  0.4325618363464994   T   T   T
  0.5000000000000001  0.5685859214622381  0.3095680190632600   T   T   T
  0.5000000000000001  0.9427841888127595  0.1905365673469915   T   T   T
  0.5000000000000001  0.1314948383444876  0.1168528698063828   T   T   T
  0.5000000000000001  0.2721794854428575  0.9501859175088639   T   T   T
 -0.0000000000000000  0.6328779019176840  0.9571970991980904   T   T   T
  0.5000000000000001  0.5557230359051554  0.8113206013646523   T   T   T
  0.5000000000000001  0.8771440603189866  0.8819229995796919   T   T   T
 -0.0000000000000000  0.0951603480841875  0.8089152414488928   T   T   T
  0.5000000000000001  0.9266228947095209  0.6864259173898232   T   T   T
 -0.0000000000000000  0.3674316889516518  0.6860344785710718   T   T   T
  0.5000000000000001  0.5955111853380894  0.6120713646344332   T   T   T
 -0.0000000000000000  0.8028965808606922  0.5622655305763025   T   T   T
  0.5000000000000001  0.6918938892616182  0.4328984229430599   T   T   T
  0.5000000000000001  0.0153224327652579  0.5017784264979592   T   T   T
 -0.0000000000000000  0.2235563150740530  0.4686858705016580   T   T   T
  0.5000000000000001  0.0731794049456564  0.3152637164700596   T   T   T
  0.5000000000000001  0.3700660976090575  0.3759331673599660   T   T   T
 -0.0000000000000000  0.5536708317130454  0.3040915717908093   T   T   T
  0.5000000000000001  0.4494036723761280  0.1639227838285025   T   T   T
  0.5000000000000001  0.7602302444743877  0.2534386955214640   T   T   T
 -0.0000000000000000  0.9517640547684683  0.1872457540662842   T   T   T
  0.5000000000000001  0.8084449072202429  0.0627885102864980   T   T   T
