Sr Co O 
 1.0000000000000000
     3.7441574698773068    0.0000000000000000    0.0000000000000000
     0.0000000000000000    3.9373002064394571    0.0000000000000000
     0.0000000000000000    0.0000000000000000   24.2063534013829837
 Sr  Co  O  
   6   6  13
Selective dynamics
Direct
  0.0000000000000000  0.0000000000000000 -0.0145244207811252   T   T   T
  0.0000000000000000  0.0000000000000000  0.1783599944126860   T   T   T
  0.0000000000000000  0.0000000000000000  0.3299518204281244   T   T   T
  0.0000000000000000  0.0000000000000000  0.5066054915730568   T   T   T
  0.0000000000000000  0.0000000000000000  0.6603909595717562   T   T   T
  0.0000000000000000  0.0000000000000000  0.8355171354542781   T   T   T
  0.4999999999999997  0.5000000000000000  0.0773574363943605   T   T   T
  0.4999999999999997  0.5000000000000000  0.2542548384160198   T   T   T
  0.4999999999999997  0.5000000000000000  0.4173608190699222   T   T   T
  0.4999999999999997  0.5000000000000000  0.5836161041111037   T   T   T
  0.4999999999999997  0.5000000000000000  0.7506593902787195   T   T   T
  0.4999999999999997  0.5000000000000000  0.9106927224231113   T   T   T
  0.4999999999999997  0.5000000000000000  0.1513308375576740   T   T   T
  0.0000000000000000  0.5000000000000000  0.2503354928346577   T   T   T
  0.4999999999999997  0.0000000000000000  0.2505902551139092   T   T   T
  0.4999999999999997  0.5000000000000000  0.3428544213519000   T   T   T
  0.4999999999999997  0.0000000000000000  0.4166288821655679   T   T   T
  0.4999999999999997  0.5000000000000000  0.4911541975534215   T   T   T
  0.0000000000000000  0.5000000000000000  0.5838732477469204   T   T   T
  0.4999999999999997  0.0000000000000000  0.5839421870716048   T   T   T
  0.4999999999999997  0.5000000000000000  0.6769118319011271   T   T   T
  0.4999999999999997  0.0000000000000000  0.7531675293353068   T   T   T
  0.4999999999999997  0.5000000000000000  0.8265995523917271   T   T   T
  0.0000000000000000  0.5000000000000000  0.9294294797982328   T   T   T
  0.4999999999999997  0.0000000000000000  0.9196064035799214   T   T   T
