Sr Co O 
 1.0000000000000000
    -3.7178524938700019    0.0000000000000000    0.0000000000000000
     0.0000000000000000    3.9828258623380535    7.9009760621972021
     0.0000000000000000   11.9255574003949611   -7.8895647535289326
 Sr  Co  O  
   8   8  21
Selective dynamics
Direct
 -0.0000000000000000  0.0015458814970057  0.0003876214665093   T   T   T
 -0.0000000000000000  0.3876144235125532  0.8741534484262100   T   T   T
 -0.0000000000000000  0.7409685098400253  0.7445915189306801   T   T   T
 -0.0000000000000000  0.1361104003324645  0.6260816730657923   T   T   T
 -0.0000000000000000  0.4866233771562093  0.4978507397329334   T   T   T
 -0.0000000000000000  0.8782696390126313  0.3673941749022911   T   T   T
 -0.0000000000000000  0.2562082976998388  0.2598879225504124   T   T   T
 -0.0000000000000000  0.6155665458912962  0.1272052105956127   T   T   T
  0.4999999999999995  0.3166631210392091  0.0609129650308187   T   T   T
  0.4999999999999995  0.6853875840680151  0.9409947522071089   T   T   T
  0.4999999999999995  0.0756385810964345  0.8123283041681736   T   T   T
  0.4999999999999995  0.4404219484932267  0.6873576448139321   T   T   T
  0.4999999999999995  0.8136773331323069  0.5607470272641958   T   T   T
  0.4999999999999995  0.1852323352848688  0.4393059593561307   T   T   T
  0.4999999999999995  0.5602320841902069  0.3137314852601333   T   T   T
  0.4999999999999995  0.9254099777275657  0.1881991044812778   T   T   T
 -0.0000000000000000  0.2779184876393309  0.0758789293766084   T   T   T
  0.4999999999999995  0.1734486310858760  0.9487690189825151   T   T   T
  0.4999999999999995  0.4999834384683122 -0.0000960995532685   T   T   T
 -0.0000000000000000  0.7207075003033224  0.9274504708799647   T   T   T
  0.4999999999999995  0.5838829608707430  0.8137947005003160   T   T   T
 -0.0000000000000000  0.0199882030826904  0.8208278049354732   T   T   T
  0.4999999999999995  0.9237179389992491  0.6783842045393004   T   T   T
  0.4999999999999995  0.2540470679652629  0.7585314822648848   T   T   T
 -0.0000000000000000  0.4436930033834607  0.6893537240208664   T   T   T
  0.4999999999999995  0.3080698797765159  0.5665717036450671   T   T   T
  0.4999999999999995  0.6382573295192050  0.6157454534185974   T   T   T
  0.4999999999999995  0.7047674917933889  0.4449303193851377   T   T   T
  0.4999999999999995 -0.0128948790701323  0.5058619047725919   T   T   T
 -0.0000000000000000  0.1756764977493178  0.4385136618707253   T   T   T
  0.4999999999999995  0.0595927778284307  0.3019590467942204   T   T   T
  0.4999999999999995  0.3773181145216591  0.3789083223484362   T   T   T
 -0.0000000000000000  0.5677251158891636  0.3135746525019981   T   T   T
  0.4999999999999995  0.4180922320279077  0.1841444607022206   T   T   T
  0.4999999999999995  0.7435681740498382  0.2416698734917897   T   T   T
 -0.0000000000000000  0.9716390138661948  0.1752030364428794   T   T   T
  0.4999999999999995  0.8327311909229345  0.0563935533564626   T   T   T
