Sr Co O 
 1.0000000000000000
    -3.9434067412544187    3.9816790859763564    0.0316022040626396
     3.9434067412544187    3.9816790859763564   -0.0316022040626395
     0.1287878633041820   -3.9816790859763564  -15.3360805769248252
 Sr  Co  O  
   8   8  20
Selective dynamics
Direct
 -0.0062242355580631  0.0108458535999689  0.0081334599217084   T   T   T
  0.8896034156566677  0.8605563440804149  0.7429617488223539   T   T   T
  0.7520995500213026  0.7527834735959206  0.4985513966766957   T   T   T
  0.6215342433422870  0.6343912522994488  0.2526621305131857   T   T   T
  0.4972876063217399  0.5143576954797729  0.0081334599217084   T   T   T
  0.3824054047419415  0.3533583331656876  0.7429617488223541   T   T   T
  0.2457679230807771  0.2464518466553938  0.4985513966766957   T   T   T
  0.1182708782137388  0.1311278871708990  0.2526621305131857   T   T   T
  0.9355429403596830  0.4400517700753210  0.8755947104350020   T   T   T
  0.8147924346439533  0.3051821550617471  0.6199745897056993   T   T   T
  0.6848554368304204  0.1966370902842328  0.3814925271146521   T   T   T
  0.5426875810143837  0.0674968264953298  0.1101844075097135   T   T   T
  0.4701928069589686  0.9026715643763540  0.8728643713353191   T   T   T
  0.3229025098448280  0.8041072925815610  0.6270098024263863   T   T   T
  0.1881009476938218  0.6879838198774748  0.3760847675712941   T   T   T
  0.0565317278697258  0.5796633380662114  0.1361950659359355   T   T   T
  0.7736380304101993  0.1616231561799402  0.8694418166632784   T   T   T
  0.0485816159180029  0.0793274402574029  0.6279090561754049   T   T   T
  0.5670071400083583  0.0427086954789698  0.6303082126564010   T   T   T
  0.7012025061121656  0.2998065489997757  0.5010090551119400   T   T   T
  0.9360621795179974  0.9493534994214025  0.3854156789393965   T   T   T
  0.4556801857613523  0.9579272384544238  0.3633022554807004   T   T   T
  0.8114213780530649  0.7967583160285528  0.1081796940816143   T   T   T
  0.3263116199690491  0.8423726173847409  0.1278024709668466   T   T   T
  0.4269734565622320  0.0528987615024714 -0.0201277819352968   T   T   T
  0.7205113936139147  0.6783745185800049  0.8988859121939168   T   T   T
  0.2078186604833398  0.5958037862530808  0.8694418166632782   T   T   T
  0.3574405510265450  0.9024548332071298  0.7598953842336713   T   T   T
  0.6136056137171736  0.5423429556920332  0.6559485694092050   T   T   T
  0.0875995171774328  0.5633010726480441  0.6303082126564008   T   T   T
  0.2755135864481769  0.7204404365808011  0.4959540230289754   T   T   T
  0.4265895190427344  0.4242716723594062  0.3508611914021392   T   T   T
  0.9053750170262793  0.4076220697193493  0.3633022554807002   T   T   T
  0.0919288288277531  0.6645313779808374  0.2564602068085878   T   T   T
  0.2774580903467561  0.3414237369790085  0.1188818273257635   T   T   T
  0.7854298535821083  0.3014908509977993  0.1278024709668467   T   T   T
