Sr Co O 
 1.0000000000000000
    -3.6647783311392965    0.0000000000000000    0.0000000000000000
     0.0000000000000000    4.1186735969523784    7.9130266993629848
     0.0000000000000000   12.4636416943836981   -7.9656560513021031
 Sr  Co  O  
   8   8  20
Selective dynamics
Direct
 -0.0000000000000000  0.0086677205036758  0.0002251077094114   T   T   T
 -0.0000000000000000  0.3938762357870315  0.8877486894213017   T   T   T
 -0.0000000000000000  0.7121711386480536  0.7585957608033269   T   T   T
 -0.0000000000000000  0.1339910227947070  0.6096842575395414   T   T   T
 -0.0000000000000000  0.4821118063253527  0.4878814270329710   T   T   T
 -0.0000000000000000  0.8834088073293375  0.3635560698316582   T   T   T
 -0.0000000000000000  0.2636592411547652  0.2601253449020613   T   T   T
 -0.0000000000000000  0.6281615534865828  0.1402387585436990   T   T   T
  0.4999999999999998  0.3270914402282630  0.0697498692926659   T   T   T
  0.4999999999999998  0.6965014091742747  0.9628890385658316   T   T   T
  0.4999999999999998  0.0817459424299471  0.8188269961771671   T   T   T
  0.4999999999999998  0.4151275293399269  0.6828095421101268   T   T   T
  0.4999999999999998  0.8135596368897914  0.5482976870740731   T   T   T
  0.4999999999999998  0.1861911795888443  0.4336773955415779   T   T   T
  0.4999999999999998  0.5653141833599543  0.3145035977429157   T   T   T
  0.4999999999999998  0.9430160836292003  0.1897208278456883   T   T   T
 -0.0000000000000000  0.2786764758814277  0.0756435906867209   T   T   T
  0.4999999999999998  0.1790433036246971  0.9365521064070299   T   T   T
  0.4999999999999998  0.4987874473355707 -0.0025161464095540   T   T   T
 -0.0000000000000000  0.7143132912191039  0.9296566289112503   T   T   T
  0.4999999999999998  0.5393802274546298  0.7949549813455126   T   T   T
 -0.0000000000000000 -0.0072931821585837  0.8162376044986578   T   T   T
  0.4999999999999998  0.2062545255948781  0.7280062261088109   T   T   T
 -0.0000000000000000  0.4603152107065402  0.6658024286827211   T   T   T
  0.4999999999999998  0.3216528730132681  0.5594483375869186   T   T   T
 -0.0000000000000000  0.8061900623570772  0.6022389449601243   T   T   T
  0.4999999999999998  0.6795358348214178  0.4483157648349248   T   T   T
  0.4999999999999998  0.0008985559053740  0.5052741273868664   T   T   T
 -0.0000000000000000  0.1807157640385805  0.4345934110869918   T   T   T
  0.4999999999999998  0.0636764191074893  0.3044808208259014   T   T   T
  0.4999999999999998  0.3745360651566976  0.3729463645694499   T   T   T
 -0.0000000000000000  0.5744636284585912  0.3146683376197165   T   T   T
  0.4999999999999998  0.4380522565511375  0.1887038151893754   T   T   T
  0.4999999999999998  0.7570139545294057  0.2470935408050807   T   T   T
 -0.0000000000000000  0.9885135539531272  0.1745263517560746   T   T   T
  0.4999999999999998  0.8481793275120475  0.0623425618604777   T   T   T
