Sr Co O 
 1.0000000000000000
    -3.6781118266771782    0.0000000000000000    0.0000000000000000
     0.0000000000000000    3.9656393510470256    4.0329628847044106
     0.0000000000000000   15.8543532827679776  -16.1241525726294093
 Sr  Co  O  
   8   8  20
Selective dynamics
Direct
 -0.0000000000000000 -0.0653479385415448  0.0005356628693485   T   T   T
 -0.0000000000000000  0.4298134982673819  0.8856528377891274   T   T   T
 -0.0000000000000000  0.0612969075360912  0.7442974780272775   T   T   T
 -0.0000000000000000  0.5304480096040594  0.6211908951387113   T   T   T
 -0.0000000000000000  0.0227552101836478  0.4989967200174338   T   T   T
 -0.0000000000000000  0.5089989566069306  0.3701501612598863   T   T   T
 -0.0000000000000000  0.0035176998451509  0.2541757236941561   T   T   T
 -0.0000000000000000  0.4985354001949097  0.1300255850221355   T   T   T
  0.5000000000000003  0.4629255685831633  0.0020191176425074   T   T   T
  0.5000000000000003 -0.0552074984853668  0.8803709995755215   T   T   T
  0.5000000000000003  0.5244754404294801  0.7458140396976677   T   T   T
  0.5000000000000003  0.0332268589385140  0.6225895223247766   T   T   T
  0.5000000000000003  0.5228727782459336  0.4992437117203755   T   T   T
  0.5000000000000003  0.0097470763616109  0.3749352474479400   T   T   T
  0.5000000000000003  0.4998502414400924  0.2513455259880796   T   T   T
  0.5000000000000003 -0.0233371997205372  0.1291770089024893   T   T   T
 -0.0000000000000000  0.4126814871848934  0.0129258015635997   T   T   T
  0.5000000000000003  0.1820937080379460  0.9424963988241026   T   T   T
  0.5000000000000003  0.6835404400260525  0.9338289822550641   T   T   T
 -0.0000000000000000 -0.0743936060511376  0.8522772603487022   T   T   T
  0.5000000000000003  0.3374308971800828  0.8080357218924535   T   T   T
  0.5000000000000003  0.3071566969284678  0.6842658940133992   T   T   T
  0.5000000000000003  0.7952150709937805  0.7068059494281667   T   T   T
 -0.0000000000000000  0.0187036548746977  0.6247990035596841   T   T   T
  0.5000000000000003  0.7495802939269528  0.5603033827466214   T   T   T
  0.5000000000000003  0.2919557297050791  0.5563989306151407   T   T   T
  0.5000000000000003  0.2937112425755213  0.4423671403207655   T   T   T
  0.5000000000000003  0.7561182582613957  0.4455643576567685   T   T   T
 -0.0000000000000000  0.0133969947064718  0.3807715700346342   T   T   T
  0.5000000000000003  0.7526503397245157  0.3150744508491524   T   T   T
  0.5000000000000003  0.2501271611441839  0.3114696411982312   T   T   T
 -0.0000000000000000  0.4982742707666954  0.2482542323284999   T   T   T
  0.5000000000000003  0.2474542902003271  0.1778667851948365   T   T   T
  0.5000000000000003  0.7559600164764491  0.1881869144721193   T   T   T
 -0.0000000000000000  0.0352989438130504  0.1091275755447988   T   T   T
  0.5000000000000003  0.7284726645904779  0.0636597404577571   T   T   T
