Sr Co O 
 1.0000000000000000
    -3.9419022471655976    0.0456336669885646   -4.0040598242009819
    -3.9353830586955918    3.8744094207020572    7.9560030392145675
     3.8459022692198439    7.6990502272375103   -3.9990245800161439
 Sr  Co  O  
   8   8  20
Selective dynamics
Direct
 -0.0199467539883079 -0.0322041800997778 -0.0129500798504035   T   T   T
  0.6302266293697297  0.2444694731606453  0.8871938014295397   T   T   T
  0.2667618339347514  0.5085949595611866  0.7452196586343757   T   T   T
  0.8872486828943782  0.7487736116974172  0.6260079152798058   T   T   T
  0.5118725928057148  0.0019834048707559  0.5306554860991848   T   T   T
  0.1530350788255429  0.2814325878138369  0.3990282570595141   T   T   T
  0.7731794007846838  0.5192161467248101  0.2628865851138674   T   T   T
  0.3703530204587754  0.7261396512190755  0.1091439728632133   T   T   T
  0.4953179960781380  0.1169649673653070  0.1985778554507913   T   T   T
  0.2324680109980748  0.3834584011848273  0.0705224318035338   T   T   T
  0.8210814802808851  0.6213169438282090  0.9441564700043010   T   T   T
  0.4430591603498814  0.8667547093304967  0.8163925849651786   T   T   T
  0.0718172832026613  0.1402683010700085  0.7259166261353134   T   T   T
  0.6902014822569605  0.3611851748661887  0.5496426113025994   T   T   T
  0.3312914394951738  0.6353859041774516  0.4426389511213131   T   T   T
  0.9589769080619021  0.8624603404752059  0.3077764783567793   T   T   T
  0.5254273613507414 -0.0097436921286724  0.0372744587780619   T   T   T
  0.4628993487781921  0.2878395547357231  0.1441055498193424   T   T   T
  0.4957156905978850  0.4885641704163013 -0.0382717256897030   T   T   T
  0.0725972187467551  0.2240342792354111  0.9372190145534169   T   T   T
 -0.0218620909155058  0.4927878172070883 -0.0119079965828756   T   T   T
  0.1452435449690842  0.7439966742240303  0.8818076078385155   T   T   T
  0.6571586436294732  0.7244115092388521  0.8542912473436965   T   T   T
  0.7370266327466137 -0.0075918183778130  0.7546470825147937   T   T   T
  0.3667909359701879  0.7463872809338881  0.6260710216257197   T   T   T
  0.2311914612238779  0.0038452436992205  0.7465090742086719   T   T   T
  0.4155620365098962  0.2642283727499964  0.6411646923321004   T   T   T
  0.9137728160717531  0.2471255169694738  0.6432283820501027   T   T   T
 -0.0158811544108012  0.4962962961228498  0.5172663437369155   T   T   T
  0.6774762892512982  0.1978697341088309  0.3674912034283134   T   T   T
  0.5174678604971811  0.5015914462128312  0.4995246910850058   T   T   T
  0.6816430947783187  0.7955839447311168  0.4035521077521648   T   T   T
  0.2417656251335131  0.5046323211896439  0.2493585266246061   T   T   T
  0.1730370193104690  0.7769280330162740  0.3781030328722465   T   T   T
  0.1506818282576580  0.0362714993736891  0.2608327817288483   T   T   T
  0.8303409245177900  0.7487415595635221  0.1299234757448026   T   T   T
