Sr Co O 
 1.0000000000000000
    -3.7159406053297976    0.0000000000000000    0.0000000000000000
     0.0000000000000000   -8.1739779470281171    0.0154610742938162
     0.0000000000000000    4.0440097537078268   15.7153617453575123
 Sr  Co  O  
   8   8  20
Selective dynamics
Direct
 -0.0000000000000000  0.0258174406105951 -0.0075662013861184   T   T   T
 -0.0000000000000000  0.1451970242342147  0.2532379266132105   T   T   T
 -0.0000000000000000  0.2444835569045968  0.4956955706980803   T   T   T
 -0.0000000000000000  0.3447021394353785  0.7303933831050039   T   T   T
 -0.0000000000000000  0.4722519976801088  0.0071624494984341   T   T   T
 -0.0000000000000000  0.5895247737063987  0.2522046092836062   T   T   T
 -0.0000000000000000  0.7315409041461561  0.5002442140557497   T   T   T
 -0.0000000000000000  0.8747062554799123  0.7374456709426344   T   T   T
  0.5000000000000004  0.8108632656339565  0.1245163736045857   T   T   T
  0.5000000000000004  0.9232993162334037  0.3703784618076554   T   T   T
  0.5000000000000004  0.0469333317704185  0.6158042106391154   T   T   T
  0.5000000000000004  0.1797143681352622  0.8678238421072656   T   T   T
  0.5000000000000004  0.2987878481485347  0.1234562423108449   T   T   T
  0.5000000000000004  0.4306768962414773  0.3745701369474208   T   T   T
  0.5000000000000004  0.5483597340879756  0.6221359161440632   T   T   T
  0.5000000000000004  0.7033459209185732  0.8736360301177853   T   T   T
  0.5000000000000004  1.0207840332869744  0.1165108061344190   T   T   T
 -0.0000000000000000  0.8992391410052470  0.3178084364134257   T   T   T
  0.5000000000000004  0.1517542375400980  0.3665370730771353   T   T   T
  0.5000000000000004 -0.0263602670584037  0.4874342970614253   T   T   T
 -0.0000000000000000  0.0454635698964382  0.6170701461267216   T   T   T
  0.5000000000000004  0.2958750339952693  0.6136509920894303   T   T   T
  0.5000000000000004  0.1227940411965838  0.7500376637287083   T   T   T
 -0.0000000000000000  0.2425937975881965  0.8718581616476476   T   T   T
  0.5000000000000004  0.2576738996210824 -0.0063465057760778   T   T   T
 -0.0000000000000000  0.3013764211974181  0.1212397824864068   T   T   T
  0.5000000000000004  0.5953118853691913  0.1232018591764167   T   T   T
  0.5000000000000004  0.3619019416186844  0.2471422787070001   T   T   T
 -0.0000000000000000  0.4251478817653203  0.3724502731403647   T   T   T
  0.5000000000000004  0.6895083681731559  0.3623562381164403   T   T   T
  0.5000000000000004  0.4956325363970903  0.4952300473924965   T   T   T
 -0.0000000000000000  0.5552495616759294  0.6293524085688226   T   T   T
  0.5000000000000004  0.8000756444397834  0.6280922816475236   T   T   T
  0.5000000000000004  0.5801269427329921  0.7665111195803437   T   T   T
 -0.0000000000000000  0.6924514403433297  0.9242210699343472   T   T   T
  0.5000000000000004  0.9356951181406603  0.8795026361198657   T   T   T
