Sr Co O 
 1.0000000000000000
    -3.7401778203232916    0.0000000000000000    0.0000000000000000
     0.0000000000000000    3.8565497409165705    8.0768141607625861
     0.0000000000000000   11.5706839175166962   -8.0756425547674002
 Sr  Co  O  
   8   8  20
Selective dynamics
Direct
 -0.0000000000000000 -0.0151494593714395 -0.0041819159703944   T   T   T
 -0.0000000000000000  0.3532176730654955  0.8744723634994440   T   T   T
  0.0000000000000000  0.7609737926885569  0.7442458566109559   T   T   T
  0.0000000000000000  0.1119358799903055  0.6288545632889078   T   T   T
 -0.0000000000000000  0.5130641200096927  0.4961454367110920   T   T   T
 -0.0000000000000000  0.8640262073114420  0.3807541433890430   T   T   T
  0.0000000000000000  0.2717823269345028  0.2505276365005547   T   T   T
 -0.0000000000000000  0.6401494593714393  0.1291819159703939   T   T   T
  0.5000000000000003  0.3124999999999998  0.0624999999999998   T   T   T
  0.5000000000000003  0.6802039512538648  0.9364521769939146   T   T   T
  0.5000000000000003  0.0534888468421987  0.8146345211581468   T   T   T
  0.5000000000000003  0.4298970940321985  0.6826645961100696   T   T   T
  0.5000000000000003  0.8124999999999990  0.5624999999999990   T   T   T
  0.5000000000000003  0.1951029059677990  0.4423354038899281   T   T   T
  0.5000000000000003  0.5715111531577999  0.3103654788418524   T   T   T
  0.5000000000000003  0.9447960487461339  0.1885478230060839   T   T   T
  0.5000000000000003  0.1483558022299836  0.1285633315885159   T   T   T
  0.5000000000000003  0.1811694318682321  0.9488178078271765   T   T   T
  0.5000000000000003  0.4766441977700167 -0.0035633315885161   T   T   T
 -0.0000000000000000  0.6422806188885505  0.9065239525116084   T   T   T
  0.5000000000000003  0.8522325535949755  0.8689791361572173   T   T   T
 -0.0000000000000000  0.0609144500626363  0.8163184058705746   T   T   T
  0.5000000000000003  0.9432968675496435  0.6835146319858191   T   T   T
  0.5000000000000003  0.2723013343459449  0.7505054875425594   T   T   T
 -0.0000000000000000  0.4126550127569396  0.6664044135832723   T   T   T
  0.5000000000000003  0.6080329851832902  0.6363470845609011   T   T   T
 -0.0000000000000000  0.8124999999999990  0.5624999999999990   T   T   T
  0.5000000000000003  0.6817031324503563  0.4414853680141807   T   T   T
  0.5000000000000003  0.0169670148167086  0.4886529154390979   T   T   T
 -0.0000000000000000  0.2123449872430586  0.4585955864167266   T   T   T
  0.5000000000000003  0.3526986656540540  0.3744945124574399   T   T   T
  0.0000000000000000  0.5640855499373628  0.3086815941294243   T   T   T
  0.5000000000000003  0.4438305681317676  0.1761821921728230   T   T   T
  0.5000000000000003  0.7727674464050234  0.2560208638427810   T   T   T
  0.0000000000000000  0.9827193811114496  0.2184760474883908   T   T   T
  0.5000000000000003  0.8124999999999998  0.0624999999999997   T   T   T
