Sr Co O 
 1.0000000000000000
    -3.7310332022127159    0.0000000000000000    0.0000000000000000
     0.0000000000000000   -7.9930223047553373    0.0049199516238526
     0.0000000000000000    3.9868011638372058   15.9736111898426802
 Sr  Co  O  
   8   8  20
Selective dynamics
Direct
 -0.0000000000000000  0.0222025487911829  0.0007150066821709   T   T   T
 -0.0000000000000000  0.1248272290696355  0.2332976278864825   T   T   T
 -0.0000000000000000  0.2642466405245171  0.5121246435856759   T   T   T
 -0.0000000000000000  0.3616528405004372  0.7401140899344626   T   T   T
 -0.0000000000000000  0.4963408682602337  0.0128744193043776   T   T   T
 -0.0000000000000000  0.5995190411233501  0.2453617664076264   T   T   T
 -0.0000000000000000  0.7366414835786044  0.5071663730068926   T   T   T
 -0.0000000000000000  0.8847756129368538  0.7392394231305767   T   T   T
  0.5000000000000010  0.8203115313171510  0.1319822762667493   T   T   T
  0.5000000000000010  0.9103976479798852  0.3734004607457940   T   T   T
  0.5000000000000010  0.0617340564285855  0.6209535675714625   T   T   T
  0.5000000000000010  0.1877836781307907  0.8745704979864657   T   T   T
  0.5000000000000010  0.3120078096249584  0.1235832152229152   T   T   T
  0.5000000000000010  0.4228879383719789  0.3739156627824552   T   T   T
  0.5000000000000010  0.5613259076115704  0.6267492983167560   T   T   T
  0.5000000000000010  0.7078267225551758  0.8685309793539413   T   T   T
 -0.0000000000000000  0.8109023044308922  0.1120030128578312   T   T   T
  0.5000000000000010  0.0486024813652898  0.1126047218196168   T   T   T
  0.5000000000000010  0.9261064649184225  0.2674259865593278   T   T   T
  0.5000000000000010  0.0209001821757395  0.4802587764035661   T   T   T
 -0.0000000000000000  0.0561830109624963  0.6189354235775011   T   T   T
  0.5000000000000010  0.3104397572646568  0.6258755664546197   T   T   T
  0.5000000000000010  0.1274511944338057  0.7572069985107462   T   T   T
 -0.0000000000000000  0.2497632298352135  0.8746960069673504   T   T   T
  0.5000000000000010  0.2755289103521701 -0.0062633232166763   T   T   T
 -0.0000000000000000  0.3145676749674066  0.1252356832998978   T   T   T
  0.5000000000000010  0.5810351445828110  0.1312881363935088   T   T   T
  0.5000000000000010  0.3662473401472882  0.2555188077836570   T   T   T
 -0.0000000000000000  0.3456915773584349  0.3728482196362752   T   T   T
  0.5000000000000010  0.6837187851197991  0.3706553139796879   T   T   T
  0.5000000000000010  0.4900390068587032  0.4907393324984159   T   T   T
 -0.0000000000000000  0.5650761435796559  0.6262569899077548   T   T   T
  0.5000000000000010  0.8125083971849503  0.6222929229551660   T   T   T
  0.5000000000000010  0.6072406989858833  0.7580352073130373   T   T   T
 -0.0000000000000000  0.6750111024690656  0.9060463304025250   T   T   T
  0.5000000000000010  0.9460051688194143  0.8887604957787980   T   T   T
