Sr Co O 
 1.0000000000000000
     3.8196076861445438   -4.2574868896755795    0.0382190302751344
    -3.8765047246115687    0.0277767329501828   -7.4834931613711211
     7.6539045065063087    8.5240424109340402    0.0274429195987881
 Sr  Co  O  
   8   8  20
Selective dynamics
Direct
 -0.0086828597778084 -0.0125055172822865 -0.0048298095279182   T   T   T
  0.7794204837817876  0.4936197171720752  0.8549156815192809   T   T   T
  0.5261088804780509 -0.0048045592058754  0.7325378248226810   T   T   T
  0.2669448107323095  0.5084343239285738  0.6173478292994530   T   T   T
 -0.0058922324515934 -0.0023693500832285  0.5008867320378442   T   T   T
  0.7342097111862493  0.5215477291405753  0.3935154598947249   T   T   T
  0.4710578061511916 -0.0036258150488154  0.2576413650487898   T   T   T
  0.2202579836239808  0.5091837282546836  0.1378053769875647   T   T   T
  0.8463596888371213  0.7589396035008711  0.1875249174061074   T   T   T
  0.6396311309691667  0.2429166594695723  0.0757710206729058   T   T   T
  0.4079836518416776  0.7146753788004307  0.9232264500202965   T   T   T
  0.1574345779661867  0.2459028302676907  0.7882116230201324   T   T   T
  0.8994606093973289  0.7534977877756888  0.6920300688063616   T   T   T
  0.6232967985002240  0.2505414291003448  0.5560879097747438   T   T   T
  0.3630341646039581  0.7582765541271068  0.4445237194810094   T   T   T
  0.0935860293187925  0.2702549909182817  0.3307422206607819   T   T   T
  0.6282016268017875  0.8164247330206033  0.0799201056075988   T   T   T
  0.0546901565200779  0.7504271371756568  0.0791520651528502   T   T   T
  0.7763563864964583  0.2502162700125232  0.9472626522341189   T   T   T
  0.1555634745512291  0.7319787832104668  0.8255444877486953   T   T   T
  0.6399889430235698  0.7485247664432679  0.8152930974622276   T   T   T
  0.3160402569717171  0.4667360198330734  0.9184146503508763   T   T   T
  0.8906388381502424  0.2545830607177827  0.6888596816070537   T   T   T
  0.3895483711636154  0.2512316481869265  0.6829735508575159   T   T   T
  0.0700956860158002  0.0172567150503489  0.7867597701724525   T   T   T
  0.6583979671902879  0.7773680854326620  0.5672548961559670   T   T   T
  0.1384311333717276  0.7521535960534089  0.5664859238629293   T   T   T
  0.7438478001656533  0.4992088853162270  0.6166730855824998   T   T   T
  0.3312245404264762  0.2222094779574858  0.4134391734226838   T   T   T
  0.8535646109630932  0.2421416741327093  0.4296336500324694   T   T   T
  0.4885183066577821  0.0001867718616492  0.4910947665086833   T   T   T
  0.0667971351816645  0.7317377222479400  0.3017854878077331   T   T   T
  0.6238478429939640  0.7564249402203322  0.2919081439700394   T   T   T
  0.2746886826452684  0.5145144636130786  0.3716114329349539   T   T   T
  0.8772400764862346  0.2165680941626485  0.1801753099304421   T   T   T
  0.3831071057122104  0.2456217870190925  0.1453193771958034   T   T   T
