Sr Co O 
 1.0000000000000000
    -3.9046469193340760    3.9195128511243866    3.9195128511243773
     3.9054279065162958   -0.0024619872303396    7.8423387869222250
     3.9054279065162962    7.8423387869222383   -0.0024619872303373
 Sr  Co  O  
   8   8  20
Selective dynamics
Direct
  0.0256589756790305 -0.0326829539250667 -0.0076557267440048   T   T   T
  0.2500000000000004  0.3849929749851860  0.8650070250148145   T   T   T
  0.5272437938302571  0.7659720202417110  0.7365937955213321   T   T   T
  0.7736292922350143  0.1218681832476612  0.6293828199949946   T   T   T
 -0.0272437938302560  0.5134062044786681  0.4840279797582884   T   T   T
  0.2500000000000003  0.8739705693699450  0.3760294306300551   T   T   T
  0.4743410243209696  0.2576557267440048  0.2826829539250671   T   T   T
  0.7263707077649864  0.6206171800050055  0.1281318167523398   T   T   T
 -0.0086734476075096  0.2509292256925458  0.2725616725615101   T   T   T
  0.2467040045867260  0.6129679763561022  0.1202040667303566   T   T   T
  0.5086734476075101 -0.0225616725615092 -0.0009292256925459   T   T   T
  0.7500000000000000  0.3957680867962737  0.8542319132037264   T   T   T
  0.0116973558507347  0.7554696993113316  0.7527334278702209   T   T   T
  0.2532959954132744  0.1297959332696445  0.6370320236438968   T   T   T
  0.4883026441492663  0.4972665721297803  0.4945303006886689   T   T   T
  0.7499999999999997  0.8865530787637703  0.3634469212362296   T   T   T
  0.9302394099099798  0.0679681376717260  0.2578330720016760   T   T   T
  0.1196003066774365  0.4074365591630824  0.1601301602833565   T   T   T
  0.5358224754620156  0.4454669795066060  0.0204353557438450   T   T   T
  0.1746844011779589  0.6744607489481976  0.9058048743377082   T   T   T
  0.3754159331463249  0.8049733174720153  0.0675394547002523   T   T   T
  0.7690238918113145  0.8978979137351376  0.8694384281234289   T   T   T
  0.3803996933225641  0.0898698397166440  0.8425634408369173   T   T   T
 -0.0358224754620145  0.2295646442561554  0.8045330204933948   T   T   T
  0.6116905725614508  0.4251047679034566  0.6860134599802865   T   T   T
  0.8883094274385511  0.5639865400197153  0.8248952320965444   T   T   T
  0.9283050035797236  0.7891307032443884  0.5611763358649955   T   T   T
  0.1697965244011096  0.9268054900476768  0.6819588252319042   T   T   T
  0.5521670935315024  0.0134756139151969  0.5043790814336051   T   T   T
  0.1245840668536758  0.1824605452997485  0.4450266825279846   T   T   T
  0.3253155988220429  0.3441951256622933  0.5755392510518011   T   T   T
  0.7309761081886857  0.3805615718765727  0.3521020862648617   T   T   T
  0.3302034755988902  0.5680411747680952  0.3231945099523234   T   T   T
  0.5716949964202788  0.6888236641350068  0.4608692967556115   T   T   T
 -0.0521670935315023  0.7456209185663953  0.2365243860848043   T   T   T
  0.5697605900900203  0.9921669279983237  0.1820318623282751   T   T   T
