Sr Co O 
 1.0000000000000000
     7.8684356726742992   -0.0000000000000000    0.0571693373084528
    -0.0000000000000000    7.8824116846953771    0.0000000000000000
     0.0567617921912739    0.0000000000000000    7.7811615817322890
 Sr  Co  O  
   8   8  21
Selective dynamics
Direct
 -0.0165446861471130 -0.0042378136179815 -0.0090229152415685   T   T   T
 -0.0126449422575016 -0.0154654819365452  0.5002185704078039   T   T   T
 -0.0165446861471130  0.5042378136179811 -0.0090229152415685   T   T   T
 -0.0126449422575016  0.5154654819365455  0.5002185704078038   T   T   T
  0.5242944590574330 -0.0047301322206765 -0.0104696363396604   T   T   T
  0.5085945149139510 -0.0113678347488991  0.5000926770350697   T   T   T
  0.5242944590574330  0.5047301322206763 -0.0104696363396604   T   T   T
  0.5085945149139510  0.5113678347488994  0.5000926770350697   T   T   T
  0.2718568223617046  0.2499999999999999  0.2313448724995694   T   T   T
  0.2496805794644893  0.2499999999999999  0.7790958500307635   T   T   T
  0.2479597293899810  0.7499999999999998  0.2636860852802692   T   T   T
  0.2524510294529082  0.7499999999999998  0.7477873387549121   T   T   T
  0.7349557772943339  0.2499999999999999  0.2469744249888135   T   T   T
  0.7584085933634479  0.2499999999999999  0.7333083393158460   T   T   T
  0.7511924716427383  0.7499999999999998  0.2397259294738040   T   T   T
  0.7511264680865641  0.7499999999999998  0.7449180321078537   T   T   T
  0.1778567435060982  0.2499999999999999  0.0221307722090941   T   T   T
  0.2316474574259116  0.0327077809687017  0.2818650200641481   T   T   T
  0.0348570738244449  0.2499999999999999  0.7012876900293546   T   T   T
  0.2540661022112112 -0.0267633357696122  0.8013325545743327   T   T   T
  0.0265274330030293  0.7499999999999998  0.2180720246707771   T   T   T
  0.2316474574259116  0.4672922190312980  0.2818650200641481   T   T   T
  0.2644521562253641  0.7499999999999998  0.5046580041440316   T   T   T
 -0.0091172672606379  0.7499999999999998  0.7450985588706109   T   T   T
  0.2540661022112112  0.5267633357696123  0.8013325545743327   T   T   T
  0.7554519191110696  0.2499999999999999  0.0113273405246651   T   T   T
  0.4906573358658646  0.2499999999999999  0.2997159530825270   T   T   T
  0.7571854713178977 -0.0010811072990138  0.2448981200096958   T   T   T
  0.7908454559931760  0.2499999999999999  0.4716161688799374   T   T   T
  0.4759211027235190  0.2499999999999999  0.7360972407063504   T   T   T
  0.7513587571071685  0.0159879152349556  0.7428732832590930   T   T   T
  0.7520054640608133  0.7499999999999998 -0.0007663203473926   T   T   T
  0.4691429997387082  0.7499999999999998  0.2077227714775866   T   T   T
  0.7571854713178977  0.5010811072990137  0.2448981200096959   T   T   T
  0.7443987789889084  0.7499999999999998  0.4844416054231369   T   T   T
  0.5134550069650388  0.7499999999999998  0.7581820801330145   T   T   T
  0.7513587571071685  0.4840120847650440  0.7428732832590930   T   T   T
