Sr Co O 
 1.0000000000000000
    -7.8389699936323627    0.0000000000000000   -0.0017725060230028
     0.0000000000000000   -7.5111454501964863    0.0000000000000000
     3.9213109416927439   -0.0000000000000000    7.9438028453115770
 Sr  Co  O  
   8   8  21
Selective dynamics
Direct
  0.0080101613279496  0.0031093617070300 -0.0077690546867374   T   T   T
  0.2577108982537518  0.0076094434528457  0.4965838848263139   T   T   T
  0.4922891017462480  0.0076094434528458  0.0034161151736854   T   T   T
  0.7419898386720498  0.0031093617070300  0.5077690546867365   T   T   T
  0.0080101613279496  0.4968906382929704 -0.0077690546867374   T   T   T
  0.2577108982537518  0.4923905565471541  0.4965838848263139   T   T   T
  0.4922891017462480  0.4923905565471541  0.0034161151736854   T   T   T
  0.7419898386720498  0.4968906382929704  0.5077690546867365   T   T   T
  0.8749999999999996  0.7500000000000006  0.2499999999999995   T   T   T
  0.1162743535038041  0.7500000000000006  0.7492326672597943   T   T   T
  0.3749999999999998  0.7500000000000006  0.2499999999999997   T   T   T
  0.6337256464961950  0.7500000000000006  0.7507673327402038   T   T   T
  0.8749999999999996  0.2500000000000001  0.2499999999999995   T   T   T
  0.1284452137292894  0.2500000000000001  0.7469952121028473   T   T   T
  0.3749999999999998  0.2500000000000001  0.2499999999999997   T   T   T
  0.6215547862707104  0.2500000000000001  0.7530047878971514   T   T   T
  0.7339766919964936  0.7500000000000006  0.0216196674995046   T   T   T
  0.0919288531688089  0.7500000000000006  0.2232419800443279   T   T   T
  0.0160233080035061  0.7500000000000006  0.4783803325004948   T   T   T
  0.1427521945973630 -0.0160435601185755  0.7381779903924184   T   T   T
  0.2719927680071197  0.7500000000000006 -0.0073063555605356   T   T   T
  0.6580711468311906  0.7500000000000006  0.2767580199556714   T   T   T
  0.3749999999999998 -0.0018398447365249  0.2499999999999997   T   T   T
  0.4780072319928795  0.7500000000000006  0.5073063555605345   T   T   T
  0.8749999999999998  0.7500000000000006  0.7499999999999989   T   T   T
  0.6072478054026365 -0.0160435601185755  0.7618220096075795   T   T   T
  0.7632605165756570  0.2500000000000001  0.0204044892384581   T   T   T
  0.1068004131212881  0.2500000000000001  0.2516619264458703   T   T   T
 -0.0132605165756567  0.2500000000000001  0.4795955107615412   T   T   T
  0.3749999999999998  0.2500000000000001  0.7499999999999991   T   T   T
  0.1427521945973631  0.5160435601185757  0.7381779903924185   T   T   T
  0.2487448652148882  0.2500000000000001  0.0022623014294940   T   T   T
  0.6431995868787111  0.2500000000000001  0.2483380735541288   T   T   T
  0.3749999999999998  0.5018398447365247  0.2499999999999997   T   T   T
  0.5012551347851119  0.2500000000000001  0.4977376985705055   T   T   T
  0.8749999999999998  0.2500000000000001  0.7499999999999989   T   T   T
  0.6072478054026363  0.5160435601185757  0.7618220096075795   T   T   T
