Sr Co O 
 1.0000000000000000
     3.7301141973041063    0.0000000000000000    0.0000000000000000
     0.0000000000000000   -8.1419920369737326    7.8826098240095499
     0.0000000000000000   -4.0522890530020383  -11.8030784510441435
 Sr  Co  O  
   8   8  20
Selective dynamics
Direct
  0.0000000000000000 -0.0004298483312501  0.0191231170432188   T   T   T
  0.0000000000000000  0.1529074764932375  0.7468129335344769   T   T   T
  0.0000000000000000  0.2708409892271591  0.5010281915320985   T   T   T
  0.0000000000000000  0.3685316131421786  0.2461334762113694   T   T   T
  0.0000000000000000  0.5028779741652055 -0.0152686689417525   T   T   T
  0.0000000000000000  0.6140710123449286  0.7396160689066064   T   T   T
  0.0000000000000000  0.7188902321285250  0.4664230658405438   T   T   T
  0.0000000000000000  0.8479177262570374  0.2298979259462712   T   T   T
  0.5000000000000001  0.8613411869498759  0.7336726106747190   T   T   T
  0.5000000000000001 -0.0059454867239584  0.5159571048077587   T   T   T
  0.5000000000000001  0.1201005896449862  0.2467365133991055   T   T   T
  0.5000000000000001  0.2511496257254403 -0.0034717577611872   T   T   T
  0.5000000000000001  0.3818350599255555  0.7426954189784520   T   T   T
  0.5000000000000001  0.4969413247331766  0.4891674459068300   T   T   T
  0.5000000000000001  0.6057211664950336  0.2295272046170767   T   T   T
  0.5000000000000001  0.7493647707048985 -0.0082073327197624   T   T   T
  0.5000000000000001  0.8530072493182596  0.8721498740789431   T   T   T
  0.5000000000000001  0.9744336355819468  0.6674423440515457   T   T   T
  0.5000000000000001  0.1714700721685926  0.5871708405616735   T   T   T
  0.0000000000000000  0.0973753539981807  0.2848808675001360   T   T   T
  0.5000000000000001  0.2922963302050483  0.3626875826532961   T   T   T
  0.5000000000000001  0.1743501335020437  0.1184330634271031   T   T   T
  0.0000000000000000  0.1804120287129054 -0.0469576753249392   T   T   T
  0.5000000000000001  0.4171272232465528  0.1095947079172694   T   T   T
  0.5000000000000001  0.3074352495988085  0.8649074834478143   T   T   T
  0.0000000000000000  0.3751808122093822  0.7388554929320867   T   T   T
  0.5000000000000001  0.5707513898486677  0.8628522247374117   T   T   T
  0.5000000000000001  0.4463614650249825  0.6180212385205923   T   T   T
  0.0000000000000000  0.4992590283726634  0.4883457172718242   T   T   T
  0.5000000000000001  0.7012684491501144  0.6146235893253781   T   T   T
  0.5000000000000001  0.5525846548911049  0.3597199821702231   T   T   T
  0.0000000000000000  0.6169133728080562  0.2390016571965245   T   T   T
  0.5000000000000001  0.8405328570125246  0.3871973629465943   T   T   T
  0.5000000000000001  0.6740850490087301  0.1127568524411109   T   T   T
  0.0000000000000000  0.7550353684883406 -0.0107153669188098   T   T   T
  0.5000000000000001  0.9390050515077667  0.1391887789088726   T   T   T
