Sr Co O 
 1.0000000000000000
    -3.7833055617318148    4.0091761214929020    3.9256410107871313
     3.9700184043039100    0.1292426658116202    7.9106067474686323
     3.9399332243918281    8.0319139787868519    0.1453578999596244
 Sr  Co  O  
   8   8  20
Selective dynamics
Direct
  0.0099806868196361 -0.0135597278227926 -0.0220971124836871   T   T   T
  0.2192632619003571  0.3567222712232256  0.8889566041302507   T   T   T
  0.5307367380996408  0.7682777287767742  0.7360433958697505   T   T   T
  0.7400193131803634  0.1385597278227938  0.6470971124836875   T   T   T
  0.0147490166306925  0.4794028569088498  0.4888003321062538   T   T   T
  0.2341394095427410  0.8681125962833919  0.3731383331169896   T   T   T
  0.5158605904572572  0.2568874037166078  0.2518616668830099   T   T   T
  0.7352509833693063  0.6455971430911506  0.1361996678937455   T   T   T
  0.0306616218146294  0.2565813073621185  0.2659112917141730   T   T   T
  0.2420861092101270  0.6290494256559903  0.1291276163234606   T   T   T
  0.4814996000533860 -0.0004336583643456  0.0005739239290076   T   T   T
  0.7288740350215538  0.3615267569246221  0.8641502239192742   T   T   T
  0.0211259649784443  0.7634732430753782  0.7608497760807260   T   T   T
  0.2685003999466125  0.1254336583643467  0.6244260760709925   T   T   T
  0.5079138907898711  0.4959505743440094  0.4958723836765396   T   T   T
  0.7193383781853692  0.8684186926378817  0.3590887082858263   T   T   T
  0.1508260233330740  0.1102296668343652  0.1359021020096506   T   T   T
  0.7979250395830728  0.4089039785239801  0.0213320310164878   T   T   T
  0.1668207016348938  0.4336749104228290  0.1745143354941287   T   T   T
  0.1423743306948724  0.6597264922493733  0.9217968041584266   T   T   T
  0.3914282329319511  0.7846979685793039  0.0389412545502924   T   T   T
  0.7625294525903753  0.8820694950390409  0.8717850090144870   T   T   T
  0.3750000000000001  0.0625000000000004  0.8125000000000010   T   T   T
  0.5687033032131810  0.2067851915634095  0.9609380729719080   T   T   T
 -0.0125294525903769  0.2429305049609586  0.7532149909855131   T   T   T
  0.6076256693051251  0.4652735077506265  0.7032031958415744   T   T   T
  0.9520749604169260  0.7160960214760206  0.6036679689835123   T   T   T
  0.1812966967868191  0.9182148084365911  0.6640619270280951   T   T   T
  0.5991739766669252  0.0147703331656355  0.4890978979903500   T   T   T
  0.1704018354687808  0.1741197540241657  0.4347406765744294   T   T   T
  0.3585717670680479  0.3403020314206961  0.5860587454497073   T   T   T
  0.7731024965987693  0.3503131774178013  0.3794316159909998   T   T   T
  0.3749999999999998  0.5625000000000002  0.3124999999999996   T   T   T
  0.5831792983651053  0.6913250895771711  0.4504856645058711   T   T   T
 -0.0231024965987711  0.7746868225821985  0.2455683840089992   T   T   T
  0.5795981645312192  0.9508802459758345  0.1902593234255711   T   T   T
