Sr Co O 
 1.0000000000000000
     3.9137262429532611   -3.8373095389165095   -4.0006986646935134
    -3.9137262429532611   -3.8373095389165095    4.0006986646935134
    -7.8349152404232649    3.8373095389165095   -8.0100724901418339
 Sr  Co  O  
   8   8  21
Selective dynamics
Direct
  0.0031803558552155  0.0208403015690708  0.0159731451868778   T   T   T
  0.6298671563821941  0.1122072106683373  0.7340268548131230   T   T   T
  0.2429268210463301  0.2386101807735056  0.4873639244106030   T   T   T
  0.8820731789536717  0.3863898192264941  0.2626360755893978   T   T   T
  0.4951328436178076  0.5127927893316621  0.0159731451868782   T   T   T
  0.1218196441447851  0.6041596984309298  0.7340268548131225   T   T   T
  0.7487537436370989  0.7444371033642736  0.4873639244106034   T   T   T
  0.3762462563629039  0.8805628966357275  0.2626360755893977   T   T   T
  0.6226344273996478  0.6074535378328588  0.7300879652325057   T   T   T
  0.2527272121928918  0.7471182651220949  0.4998454773149852   T   T   T
  0.8722727878071109  0.8778817348779056  0.2501545226850155   T   T   T
  0.5023655726003543  0.0175464621671405  0.0199120347674950   T   T   T
  0.1174713343334238  0.1331991706636987  0.7506705049971226   T   T   T
  0.7504591835345750  0.2464878801960866  0.4969470637306618   T   T   T
  0.3745408164654263  0.3785121198039128  0.2530529362693387   T   T   T
  0.0075286656665769  0.4918008293363006 -0.0006705049971229   T   T   T
  0.8714322746344599  0.8561417034094652  0.7889043870717120   T   T   T
  0.4417916359701676  0.6891884181663908  0.6309800541365571   T   T   T
  0.2138422870759328  0.9531497993062451  0.6669920863821760   T   T   T
  0.4873769391299441 -0.0096659678365773  0.5017322996101147   T   T   T
  0.0625000000000009  0.8125000000000007  0.3750000000000001   T   T   T
  0.8071861663884257  0.0707235239548677  0.3779096903432936   T   T   T
  0.1136017325533087  0.1106446395198292  0.2482677003898854   T   T   T
  0.6832083640298351  0.9358115818336092  0.1190199458634435   T   T   T
  0.4164801471782646  0.2034433853187503  0.1199235324970148   T   T   T
  0.6922373163377544  0.2075278875627471 -0.0389043870717107   T   T   T
  0.0625000000000002  0.3125000000000002  0.8750000000000002   T   T   T
  0.4327626836622461  0.4174721124372527  0.7889043870717112   T   T   T
  0.9473981377424721  0.1732255638285358  0.6206237015710084   T   T   T
  0.7085198528217366  0.4215566146812495  0.6300764675029856   T   T   T
  0.0113982674466922  0.5143553604801706  0.5017322996101143   T   T   T
  0.5625000000000007  0.3124999999999997  0.3750000000000006   T   T   T
  0.3178138336115763  0.5542764760451319  0.3720903096567075   T   T   T
  0.6376230608700576  0.6346659678365770  0.2482677003898859   T   T   T
  0.1776018622575297  0.4517744361714633  0.1293762984289928   T   T   T
  0.9111577129240699  0.6718502006937562  0.0830079136178252   T   T   T
  0.2535677253655413  0.7688582965905351 -0.0389043870717109   T   T   T
