Sr Co O 
 1.0000000000000000
    -3.9201967815641354    0.0000000000000000   -3.9201967815641394
     0.0000000000000000   -7.9973208993680531   -0.0000000000000000
    -7.6850754791407319    3.9986604496840266    7.6850754791407381
 Sr  Co  O  
   8   8  20
Selective dynamics
Direct
  0.0282599381253301  0.0000000000000000 -0.0000000000000000   T   T   T
  0.4936965727760143  0.1382486410070051  0.2489187403449772   T   T   T
 -0.0242392422423808  0.2737562414047413  0.4999999999999995   T   T   T
  0.4936965727760128  0.3893299006620270  0.7510812596550208   T   T   T
  0.0282599381253301  0.5000000000000006 -0.0000000000000000   T   T   T
  0.4936965727760143  0.6106700993379731  0.2489187403449772   T   T   T
 -0.0242392422423810  0.7262437585952590  0.4999999999999995   T   T   T
  0.4936965727760130  0.8617513589929950  0.7510812596550208   T   T   T
  0.4960430812303093  0.7563787127366531  0.0127574254733055   T   T   T
 -0.0195195145672324  0.8669611661695013  0.2339223323390018   T   T   T
  0.5478234758187874 -0.0000000000000001  0.4999999999999993   T   T   T
 -0.0195195145672321  0.1330388338304989  0.7660776676609978   T   T   T
  0.4960430812303099  0.2436212872633471 -0.0127574254733064   T   T   T
  0.0082543891538368  0.3768057271600108  0.2536114543200210   T   T   T
  0.4838777650164168  0.5000000000000003  0.4999999999999994   T   T   T
  0.0082543891538351  0.6231942728399892  0.7463885456799777   T   T   T
  0.8007426789299896  0.7893898814345965  0.0787797628691922   T   T   T
  0.5126770718942695  0.0000000000000001 -0.0000000000000001   T   T   T
  0.2920775771280017  0.8367428140059839  0.1734856280119672   T   T   T
 -0.0330478190222850  0.1404305614123306  0.2338692171472682   T   T   T
  0.7904675161618594  0.9352978223284583  0.3705956446569148   T   T   T
  0.7904675161618591  0.0647021776715417  0.6294043553430826   T   T   T
  0.4296838055145403  0.2083403652357191  0.4999999999999992   T   T   T
  0.2920775771280015  0.1632571859940162  0.8265143719880321   T   T   T
 -0.0330478190222857  0.4065613442650622  0.7661307828527311   T   T   T
  0.8007426789299891  0.2106101185654032  0.9212202371308056   T   T   T
  0.5126770718942695  0.5000000000000004 -0.0000000000000001   T   T   T
  0.2797532846471763  0.3087306763694599  0.1174613527389193   T   T   T
  0.2442497539913467  0.4393056031825858  0.3786112063651707   T   T   T
 -0.0330478190222849  0.5934386557349383  0.2338692171472682   T   T   T
  0.7244015687933334  0.4370604097476390  0.3741208194952769   T   T   T
  0.7244015687933317  0.5629395902523613  0.6258791805047211   T   T   T
  0.4296838055145402  0.7916596347642811  0.4999999999999992   T   T   T
  0.2442497539913463  0.5606943968174145  0.6213887936348280   T   T   T
  0.2797532846471747  0.6912693236305401  0.8825386472610792   T   T   T
 -0.0330478190222859  0.8595694385876697  0.7661307828527312   T   T   T
