Sr Co O 
 1.0000000000000000
     4.0169887812119196    0.0000000000000000    4.0169887812119258
     0.1022503864600455   -7.4270750746536702   -0.1022503864600457
     8.0841504172773391   -0.2149913172267173   -8.0841504172773710
 Sr  Co  O  
   8   8  20
Selective dynamics
Direct
 -0.0132308868429547 -0.0116253510917409 -0.0137558010798283   T   T   T
  0.4741529541700237 -0.0000000000000001  0.7500000000000008   T   T   T
 -0.0132308868429557  0.0116253510917409  0.5137558010798285   T   T   T
  0.5663474823640455 -0.0000000000000000  0.2500000000000009   T   T   T
 -0.0067202082212363  0.4920504446932078 -0.0109524135093164   T   T   T
  0.4737937389405867  0.4999999999999999  0.7500000000000011   T   T   T
 -0.0067202082212357  0.5079495553067928  0.5109524135093164   T   T   T
  0.5607033158719255  0.5000000000000001  0.2499999999999999   T   T   T
  0.4934285000731584  0.7278375544188479 -0.0000020170641195   T   T   T
 -0.0144861922921185  0.7505396830240698  0.7541502502135162   T   T   T
  0.5215975045599706  0.7244812378477768  0.5145524806488893   T   T   T
  0.0383334843832439  0.7525294805866252  0.2183670820332465   T   T   T
  0.5215975045599709  0.2755187621522224 -0.0145524806488883   T   T   T
 -0.0144861922921207  0.2494603169759309  0.7458497497864837   T   T   T
  0.4934285000731571  0.2721624455811530  0.5000020170641198   T   T   T
  0.0383334843832436  0.2474705194133748  0.2816329179667535   T   T   T
  0.3067166141772452  0.8170440103073691  0.1154703496537371   T   T   T
  0.2419035943380738  0.7474566784766611  0.8786978908890646   T   T   T
  0.7152290867512000  0.7429208576343345  0.8839247411755770   T   T   T
  0.7283688732172078  0.7720031210050693  0.6317497851491470   T   T   T
 -0.0052235871213789 -0.0000000000000001  0.7500000000000000   T   T   T
  0.2572398203354592  0.7678055378750032  0.6013870359461366   T   T   T
  0.7284137739898346  0.7692328088636902  0.3960190644295858   T   T   T
  0.7668920470682753  0.7424136572223897  0.1174476947274190   T   T   T
  0.0308893667019347 -0.0000000000000000  0.2500000000000001   T   T   T
  0.2572398203354565  0.2321944621249967  0.8986129640538636   T   T   T
  0.4092296063457243  0.4780139125704871  0.0471767553843044   T   T   T
  0.7283688732172066  0.2279968789949312  0.8682502148508537   T   T   T
  0.7152290867511991  0.2570791423656657  0.6160752588244254   T   T   T
 -0.0096678042830071  0.5000000000000002  0.7500000000000006   T   T   T
  0.2419035943380720  0.2525433215233403  0.6213021091109369   T   T   T
  0.3067166141772446  0.1829559896926312  0.3845296503462632   T   T   T
  0.4092296063457250  0.5219860874295121  0.4528232446156962   T   T   T
  0.7668920470682743  0.2575863427776103  0.3825523052725816   T   T   T
  0.7284137739898356  0.2307671911363090  0.1039809355704151   T   T   T
  0.0631736497185021  0.4999999999999998  0.2499999999999999   T   T   T
