Sr Co O 
 1.0000000000000000
    -3.7031688939244365    0.0000000000000000    0.0000000000000000
     0.0000000000000000   -7.9012334198209579   -0.0295011798439687
     0.0000000000000000    4.0099480684533786   16.0575693940206179
 Sr  Co  O  
   8   8  20
Selective dynamics
Direct
 -0.0000000000000000 -0.0034811275639412 -0.0083417717659000   T   T   T
 -0.0000000000000000  0.1284004935801854  0.2456350224663908   T   T   T
 -0.0000000000000000  0.2686953410718146  0.5113759815946047   T   T   T
 -0.0000000000000000  0.3798499950859135  0.7530816322477780   T   T   T
 -0.0000000000000000  0.4948423312747215 -0.0098215381435372   T   T   T
 -0.0000000000000000  0.6219338289033635  0.2576159398573459   T   T   T
 -0.0000000000000000  0.7270171645929709  0.5036122362370898   T   T   T
 -0.0000000000000000  0.8676692075728691  0.7541403346441566   T   T   T
  0.4999999999999995  0.8124388857842735  0.1259255640384703   T   T   T
  0.4999999999999995  0.9324227265566017  0.3649648133919206   T   T   T
  0.4999999999999995  0.0584193673578779  0.6315301590283534   T   T   T
  0.4999999999999995  0.1858020302421406  0.8747759296736218   T   T   T
  0.4999999999999995  0.3170888942901127  0.1261136575173347   T   T   T
  0.4999999999999995  0.4479328845691239  0.3761166184446847   T   T   T
  0.4999999999999995  0.5623025706039696  0.6281277613404352   T   T   T
  0.4999999999999995  0.6857190624174423  0.8745486357671400   T   T   T
  0.4999999999999995  0.7489682074267001  0.0144317028155278   T   T   T
  0.4999999999999995  0.0653460043071264  0.1236976481663222   T   T   T
  0.4999999999999995  0.8872831355016307  0.2408332859034152   T   T   T
 -0.0000000000000000  1.0137669242075924  0.3840895975974969   T   T   T
 -0.0000000000000000  0.0384507182696689  0.5925754611467691   T   T   T
  0.4999999999999995  0.2897865473154848  0.6217221771841975   T   T   T
  0.4999999999999995  0.1131287958860281  0.7464386950428885   T   T   T
 -0.0000000000000000  0.1876293803136279  0.8786650774979978   T   T   T
  0.4999999999999995  0.4345902940306758  0.8742699624322485   T   T   T
  0.4999999999999995  0.2666927539169220  0.0142501551064049   T   T   T
  0.4999999999999995  0.5704145858050406  0.1368910688040955   T   T   T
  0.4999999999999995  0.3659327113464454  0.2417731693800028   T   T   T
 -0.0000000000000000  0.4051386682175630  0.3672331598968368   T   T   T
  0.4999999999999995  0.7045897689634900  0.3830077749903671   T   T   T
  0.4999999999999995  0.4768163260989818  0.4957864501478098   T   T   T
 -0.0000000000000000  0.5612174449828103  0.6253690684773979   T   T   T
  0.4999999999999995  0.8163927116318764  0.6147109946988915   T   T   T
  0.4999999999999995  0.6261024647806032  0.7495480420156690   T   T   T
 -0.0000000000000000  0.6890454495057243  0.8807282299674032   T   T   T
  0.4999999999999995  0.9391531698847364  0.8795772269973692   T   T   T
