Sr Co O 
 1.0000000000000000
    -3.6723473155002866    0.0000000000000000    0.0000000000000000
     0.0000000000000000    4.0877837178565892    3.9678002408619562
     0.0000000000000000   16.4554949524303638  -15.9716987568956927
 Sr  Co  O  
   8   8  20
Selective dynamics
Direct
 -0.0000000000000000  0.0002717874577848  0.0012663570465495   T   T   T
 -0.0000000000000000  0.4952072300117353  0.8840015323396498   T   T   T
 -0.0000000000000000  0.0127463268105979  0.7585685449935823   T   T   T
 -0.0000000000000000  0.4079368427622212  0.6227651401124072   T   T   T
 -0.0000000000000000  0.0077316238252633  0.4876755586701401   T   T   T
 -0.0000000000000000  0.5070532866742131  0.3665380314497968   T   T   T
 -0.0000000000000000  0.0225446441780827  0.2512869803072672   T   T   T
 -0.0000000000000000  0.5392877178223365  0.1289345530636102   T   T   T
  0.4999999999999998  0.5369800103524258  0.0030099204848176   T   T   T
  0.4999999999999998  0.0027736231386264  0.8776137376906794   T   T   T
  0.4999999999999998  0.5153661234110943  0.7613505322834826   T   T   T
  0.4999999999999998 -0.0490170255069554  0.6237359421994978   T   T   T
  0.4999999999999998  0.4955159205000231  0.4889504962158270   T   T   T
  0.4999999999999998  0.0075228881409339  0.3700170553176749   T   T   T
  0.4999999999999998  0.5203474789012756  0.2484987035662077   T   T   T
  0.4999999999999998  0.0206807904589542  0.1279754937528943   T   T   T
 -0.0000000000000000  0.4653156785113606  0.0080366036061211   T   T   T
  0.4999999999999998  0.2182948985660758  0.9355016268068496   T   T   T
  0.4999999999999998  0.7568583825057130  0.9321914076441512   T   T   T
  0.4999999999999998  0.7816480511351168  0.8185495001635565   T   T   T
  0.4999999999999998  0.2453967963175068  0.8204504448180923   T   T   T
 -0.0000000000000000  0.5450682746976424  0.7328766474691132   T   T   T
  0.4999999999999998  0.1252691474823980  0.6861018096514945   T   T   T
  0.4999999999999998  0.6679958632717771  0.6008055045908498   T   T   T
  0.4999999999999998  0.1502505587056237  0.5640237844525205   T   T   T
 -0.0000000000000000  0.4923703845445153  0.5088402100066238   T   T   T
  0.4999999999999998  0.2612621063591959  0.4331654197097624   T   T   T
  0.4999999999999998  0.7659472723740559  0.4408961626552379   T   T   T
 -0.0000000000000000  0.0092020033263702  0.3723056380721699   T   T   T
  0.4999999999999998  0.7582761435370359  0.3116444149309390   T   T   T
  0.4999999999999998  0.2590553997132905  0.3064002439206310   T   T   T
 -0.0000000000000000  0.5209666440599854  0.2449222245566395   T   T   T
  0.4999999999999998  0.2814021088961406  0.1758571102188500   T   T   T
  0.4999999999999998  0.7874057028956030  0.1854832998540094   T   T   T
 -0.0000000000000000  0.0844482326325176  0.1070491301558615   T   T   T
  0.4999999999999998  0.7806172122633036  0.0627102193070067   T   T   T
