Sr Co O 
 1.0000000000000000
    -0.0000000000000000    7.8349952454993943    0.0000000000000000
     7.5447250271913102   -3.9174976227496972    0.1344091695395258
    -3.9031035444472830   -0.0000000000000000   -8.0400797308139040
 Sr  Co  O  
   8   8  20
Selective dynamics
Direct
 -0.0029712639217378  0.0021773354052688  0.0155425837987037   T   T   T
  0.8680233024635541  0.7444193804987246  0.4870550333737108   T   T   T
  0.7570612409254144  0.5100548243972949  0.0217547812860178   T   T   T
  0.6336887802622889  0.2558846512486768  0.4858099466103393   T   T   T
  0.5051485993270067  0.0021773354052688  0.0155425837987037   T   T   T
  0.3763960780351699  0.7444193804987246  0.4870550333737109   T   T   T
  0.2529935834718807  0.5100548243972949  0.0217547812860179   T   T   T
  0.1221958709863879  0.2558846512486768  0.4858099466103393   T   T   T
  0.3302260868873801  0.1604521737747602  0.7804891883069803   T   T   T
  0.1868764086361440  0.8737528172722879  0.2376045747403134   T   T   T
  0.0649846017777995  0.6299692035555993  0.7511491748417642   T   T   T
  0.9395400844238907  0.3790801688477817  0.2521155540989933   T   T   T
  0.8113479904544525  0.1226959809089052  0.7489997639825132   T   T   T
  0.6884429338242057  0.8768858676484116  0.2509290269583050   T   T   T
  0.5510979706396324  0.6021959412792651  0.7446508056495957   T   T   T
  0.4385850102061076  0.3771700204122153  0.2535059858346670   T   T   T
  0.3518170641710465  0.2036341283420931 -0.0031909586310101   T   T   T
  0.0620594921470425  0.0937532054285186  0.7420671040852860   T   T   T
  0.0753310476932250  0.6506620953864498  0.2745264363153715   T   T   T
  0.9462501870153602  0.8820211066509249  0.2600397987652364   T   T   T
  0.1082894112922567  0.7165788225845132 -0.0199654978197291   T   T   T
  0.8380083172228963  0.6438501655387322  0.7520538095748522   T   T   T
  0.0078332128167189  0.5156664256334381  0.5225409907228914   T   T   T
  0.8094134065289869  0.1188268130579749  0.2420421689083743   T   T   T
  0.6950662783620570  0.3778760330504172  0.2503756647038046   T   T   T
  0.8714136056283528  0.2428272112567056 -0.0254003179030492   T   T   T
  0.5316937132814755  0.0937532054285186  0.7420671040852860   T   T   T
  0.7643328102882433  0.0286656205764866  0.5244611841387392   T   T   T
  0.5610666756482443  0.6221333512964887  0.2411573374958347   T   T   T
  0.4357709196355641  0.8820211066509249  0.2600397987652364   T   T   T
  0.6145799319465923  0.7291598638931845 -0.0264965723741877   T   T   T
  0.4071128044741066  0.3142256089482136  0.6733053557254615   T   T   T
  0.3058418483158351  0.6438501655387322  0.7520538095748522   T   T   T
  0.5278086708865615  0.5556173417731231  0.5241152193626766   T   T   T
  0.3173634360525948  0.1347268721051895  0.2740633749580271   T   T   T
  0.1828097546883602  0.3778760330504172  0.2503756647038046   T   T   T
