Sr Co O 
 1.0000000000000000
    -3.9245255705044690    3.8839555199395006    3.8576706287361482
     3.9204779868758610   -0.0681371338428567    7.7804777523064228
     3.9913992524555204    7.9389777950483165   -0.1047705764048315
 Sr  Co  O  
   8   8  20
Selective dynamics
Direct
 -0.0277926070732441  0.0201653362060333 -0.0010337074281959   T   T   T
  0.2640274968487500  0.3939001036569366  0.8549028723410235   T   T   T
  0.5385784602896568  0.7429936656463998  0.7209607093909722   T   T   T
  0.7562875542993919  0.1361192251038037  0.6163710640462783   T   T   T
  0.0135118458672236  0.4926118968906701  0.5086130822814990   T   T   T
  0.2484727281656531  0.8640724822760300  0.4038449293358242   T   T   T
  0.4839148521228976  0.2466530501200463  0.2814852534680816   T   T   T
  0.7305634745681863  0.6048500766514155  0.1378680852592857   T   T   T
 -0.0262132269432085  0.2492269334246791  0.2583384225288308   T   T   T
  0.2361841869469588  0.5969490912932074  0.1394133218666959   T   T   T
  0.5558658926815494  0.0040287210798355  0.0003222883983177   T   T   T
  0.7517081064622194  0.3841383064787073  0.8770406533512661   T   T   T
  0.0030966745024120  0.7534721253003382  0.7401715356982790   T   T   T
  0.2477129887928143  0.1266834322970161  0.6232345873442832   T   T   T
  0.5076865456720007  0.5025141687126576  0.5022154639230045   T   T   T
  0.7530817543849345  0.8733993689466611  0.3669196281691953   T   T   T
  0.8877160778705812  0.0533711976672515  0.2943637033148245   T   T   T
  0.8216040529803555  0.3100647538806790  0.0710351278320242   T   T   T
  0.1462055288278251  0.3928930970157452  0.1643049938015038   T   T   T
  0.4596609604504645  0.5633349098551663 -0.0218293195548335   T   T   T
  0.7162480174486934  0.8834548367507352  0.8581553669788121   T   T   T
  0.5812361839583652  0.2012989167137841  0.9145406160928302   T   T   T
  0.0411878779469949  0.2292138815567468  0.7703166250126752   T   T   T
  0.6719058154875346  0.4418024838337091  0.6862868179975780   T   T   T
  0.9094863960012201  0.5723326094892291  0.8393047565999537   T   T   T
  0.2770341763828920  0.6233378108660211  0.6318711397125039   T   T   T
  0.9035296780312110  0.7996405914967882  0.5443695097261889   T   T   T
  0.1412830699288963  0.9118809177122180  0.7384370926589580   T   T   T
  0.4951002656344127  0.0038134197936203  0.5318727798497257   T   T   T
  0.1194114344664057  0.1725042414980024  0.4399364718471384   T   T   T
  0.3834819556086929  0.3106024059623990  0.5750855637895967   T   T   T
  0.7381399461816739  0.3797597907539639  0.3800430672387495   T   T   T
  0.3552752460661622  0.5704065908216660  0.3156721790157634   T   T   T
  0.6390145229953703  0.6916256002905854  0.4233280793393643   T   T   T
  0.0042001389112590  0.7533398268432823  0.1707596489351538   T   T   T
  0.5465923678870847  0.9560439094008374  0.2039776161959912   T   T   T
