Sr Co O 
 1.0000000000000000
    -3.6833997388984567    0.0000000000000000    0.0000000000000000
     0.0000000000000000    3.9417038524109720    7.9906095268768400
     0.0000000000000000   11.8697257244304133   -8.0120396476150884
 Sr  Co  O  
   8   8  20
Selective dynamics
Direct
  0.0000000000000000 -0.0063836867675767  0.0077808869991148   T   T   T
 -0.0000000000000000  0.3777287349060344  0.8655231009671852   T   T   T
 -0.0000000000000000  0.7499999999999989  0.7500000000000009   T   T   T
 -0.0000000000000000  0.1222712650939630  0.6344768990328148   T   T   T
 -0.0000000000000000  0.5063836867675756  0.4922191130008854   T   T   T
  0.0000000000000000  0.8742361055100017  0.3673029735690909   T   T   T
 -0.0000000000000000  0.2499999999999995  0.2500000000000001   T   T   T
 -0.0000000000000000  0.6257638944899957  0.1326970264309100   T   T   T
  0.5000000000000003  0.3154322316465084  0.0654761043292838   T   T   T
  0.5000000000000003  0.6854436800425159  0.9377299198008464   T   T   T
  0.5000000000000003  0.0554078350772094  0.8102567652235436   T   T   T
  0.5000000000000003  0.4445921649227882  0.6897432347764562   T   T   T
  0.5000000000000003  0.8145563199574797  0.5622700801991531   T   T   T
  0.5000000000000003  0.1845677683534906  0.4345238956707165   T   T   T
  0.5000000000000003  0.5634319050602490  0.3125322403948537   T   T   T
  0.5000000000000003  0.9365680949397487  0.1874677596051466   T   T   T
  0.5000000000000003  0.1236309957535400  0.1152086181684801   T   T   T
  0.0000000000000000  0.2878581643369755  0.0261642984401385   T   T   T
  0.5000000000000003  0.5032912786381805 -0.0144837298419062   T   T   T
  0.5000000000000003  0.5799139967364114  0.8166541881890141   T   T   T
  0.5000000000000003  0.8658406968545869  0.8850020879196872   T   T   T
 -0.0000000000000000  0.0746382191160069  0.8337300759724569   T   T   T
  0.5000000000000003  0.9200860032635857  0.6833458118109870   T   T   T
  0.5000000000000003  0.2499999999999995  0.7500000000000002   T   T   T
 -0.0000000000000000  0.4253617808839912  0.6662699240275434   T   T   T
  0.5000000000000003  0.6341593031454096  0.6149979120803133   T   T   T
  0.5000000000000003  0.7078075933782834  0.4451698687197767   T   T   T
  0.5000000000000003 -0.0032912786381819  0.5144837298419066   T   T   T
 -0.0000000000000000  0.2121418356630238  0.4738357015598614   T   T   T
  0.5000000000000003  0.0668659507198050  0.3166848669157331   T   T   T
  0.5000000000000003  0.3763690042464593  0.3847913818315205   T   T   T
  0.0000000000000000  0.5621925942405633  0.3147004689178325   T   T   T
  0.5000000000000003  0.4331340492801943  0.1833151330842674   T   T   T
  0.5000000000000003  0.7499999999999989  0.2500000000000002   T   T   T
  0.0000000000000000  0.9378074057594338  0.1852995310821684   T   T   T
  0.5000000000000003  0.7921924066217149  0.0548301312802249   T   T   T
