Sr Co O 
 1.0000000000000000
    -3.8350102547451712    4.0074981699947347    3.9069537243977424
     3.9835556826128804    0.0830729385361235    7.8803646060748562
     3.9242886833012309    7.9915088187387502    0.1131990154694097
 Sr  Co  O  
   8   8  20
Selective dynamics
Direct
  0.0028393035817629 -0.0088024774843908 -0.0159983541652988   T   T   T
  0.2720932507047814  0.3553963440527458  0.8765858477543393   T   T   T
  0.5202139161452847  0.7659216404579405  0.7497046148390673   T   T   T
  0.7603438503875201  0.1278908947995369  0.6415490724033515   T   T   T
 -0.0007598957812599  0.4939166989151010  0.4808237314139515   T   T   T
  0.2235345143058615  0.8684535538454793  0.3696159664989551   T   T   T
  0.4841811898557692  0.2534341991019765  0.2598133618063468   T   T   T
  0.7218005038672186  0.6468659556093669  0.1358820643596332   T   T   T
  0.0178721538615240  0.2637971396480852  0.2588417527380331   T   T   T
  0.2613224449082437  0.6245808028023380  0.1140338772884702   T   T   T
  0.4831460204740329 -0.0002610368681874  0.0035809529604234   T   T   T
  0.7306056313340520  0.3660851966923032  0.8628797151299994   T   T   T
  0.0179651223296841  0.7657673672585855  0.7603245104115122   T   T   T
  0.2654056758855122  0.1317774845374742  0.6275688285917108   T   T   T
  0.5023519978421607  0.4936129495605706  0.4883334663589466   T   T   T
  0.7101269271849583  0.8661040659072210  0.3649317372943745   T   T   T
  0.1585507387284016  0.1254567916858433  0.1253482720179007   T   T   T
  0.1520404718514737  0.4388512794739962  0.1708514003295628   T   T   T
  0.5805493738163316  0.5112656521051170 -0.0129459503830548   T   T   T
  0.1628222305451166  0.6521890537784372  0.9037534521937777   T   T   T
  0.3536118815932517  0.8143246190207170  0.0504545023003219   T   T   T
  0.7605256282803463  0.8667431084088973  0.8872790595468467   T   T   T
  0.3993967618609069  0.0689258354106066  0.8102684372985326   T   T   T
  0.6089162285658897  0.1891828211295281  0.9708595980429390   T   T   T
 -0.0044459406428833  0.2669035802917718  0.7845490787633514   T   T   T
  0.6325806892516403  0.4266968735608371  0.6727160067917731   T   T   T
  0.9383303052797228  0.7320113575141690  0.5996488500672539   T   T   T
  0.1578536069611583  0.9391987889058967  0.6827273804783318   T   T   T
  0.5882146003112381  0.0192005775823249  0.4876403782081227   T   T   T
  0.1208825797899582  0.1804665962074350  0.4444123132132554   T   T   T
  0.3491452687361162  0.3367390366686563  0.5662505014905523   T   T   T
  0.7512740194738485  0.3661110766336284  0.3332401832267555   T   T   T
  0.3542625643403163  0.5784481147923205  0.3188221094377038   T   T   T
  0.5667634810185865  0.6917579547784094  0.4657575412416671   T   T   T
 -0.0405611552501038  0.7708234448223785  0.2469821145657678   T   T   T
  0.5612439776321071  0.9476628683506507  0.2004136420303784   T   T   T
