Sr Co O 
 1.0000000000000000
    -3.7019537933111453    0.0000000000000000    0.0000000000000000
     0.0000000000000000    7.9305604623912451    7.9465727618712672
     0.0000000000000000    7.9600023596359533   -7.9760091599124641
 Sr  Co  O  
   8   8  22
Selective dynamics
Direct
 -0.0000000000000000 -0.0078425246193114  0.0076072374528976   T   T   T
 -0.0000000000000000  0.2506405075804441  0.7390138977367927   T   T   T
 -0.0000000000000000  0.5004573836925322  0.4895192899077964   T   T   T
 -0.0000000000000000  0.7494665883376929  0.2531554561556803   T   T   T
 -0.0000000000000000  0.5045235827342317  0.0087532035121870   T   T   T
 -0.0000000000000000  0.7566721280815494  0.7540929940173572   T   T   T
 -0.0000000000000000  0.0011253738859158  0.4941358785655672   T   T   T
 -0.0000000000000000  0.2478637285741596  0.2541337201573205   T   T   T
  0.5000000000000006  0.2572697514747284  0.0048059087379912   T   T   T
  0.5000000000000006  0.4987611873235135  0.7508209598740392   T   T   T
  0.5000000000000006  0.7488886054382764  0.4999410140406313   T   T   T
  0.5000000000000006 -0.0026324650909868  0.2516681749701540   T   T   T
  0.5000000000000006  0.7494065747294486  0.0042841554781345   T   T   T
  0.5000000000000006 -0.0070015229813373  0.7427587599629584   T   T   T
  0.5000000000000006  0.2502843093331535  0.4962034451826644   T   T   T
  0.5000000000000006  0.5011509634007836  0.2512119291589263   T   T   T
  0.5000000000000006  0.1263413516800477  0.1030150803676920   T   T   T
 -0.0000000000000000  0.2325432303373325 -0.0344700784620384   T   T   T
  0.5000000000000006  0.3764100472496036  0.8608622749305513   T   T   T
  0.5000000000000006  0.3877692848760797  0.6330688657347737   T   T   T
  0.5000000000000006  0.6158488655802077  0.6423306188058847   T   T   T
 -0.0000000000000000  0.7461183914335314  0.5114517697042714   T   T   T
  0.5000000000000006  0.6245802077097189  0.3801582946883061   T   T   T
  0.5000000000000006  0.8757513251943161  0.3802380837986718   T   T   T
 -0.0000000000000000  0.0037414700961849  0.2478118133709440   T   T   T
  0.5000000000000006  0.8736811775474284  0.1278112372988445   T   T   T
  0.5000000000000006  0.6229394328154780  0.1253612737225558   T   T   T
 -0.0000000000000000  0.7461549808389510 -0.0079368855137061   T   T   T
  0.5000000000000006  0.6088634571123096  0.8681468322668432   T   T   T
  0.5000000000000006  0.8876565957218144  0.8732897966316023   T   T   T
 -0.0000000000000000  0.0251602959589595  0.7772489406944684   T   T   T
  0.5000000000000006  0.8757871022379868  0.6298521369329256   T   T   T
  0.5000000000000006  0.1247294001064694  0.6405356858210743   T   T   T
 -0.0000000000000000  0.2519826468497909  0.5045913363812129   T   T   T
  0.5000000000000006  0.1249412470056004  0.3730870076866126   T   T   T
  0.5000000000000006  0.3743104053020416  0.3717513735826126   T   T   T
 -0.0000000000000000  0.4974373720378686  0.2476782007233035   T   T   T
  0.5000000000000006  0.3732180144910829  0.1170102931575804   T   T   T
