Sr Co O 
 1.0000000000000000
     0.0074585463098218    7.6816441040300738    0.0296683942337102
     8.0494665106995935   -3.8334023871366782   -0.0165926945310325
    -4.0241586134037322   -0.0332730913476221   -7.7416820280744343
 Sr  Co  O  
   8   8  21
Selective dynamics
Direct
  0.0045432672114005  0.0116888768026406  0.0161841034108298   T   T   T
  0.8614660806591597  0.7337955270045821  0.4831033286766521   T   T   T
  0.7593796270631599  0.5027996883291673  0.0151937552157505   T   T   T
  0.6252888891655978  0.2359051040874907  0.4882632553257152   T   T   T
  0.5013874422543637  0.0027345784559088  0.0106435112254943   T   T   T
  0.3712345838087169  0.7427900852973509  0.4939232290033667   T   T   T
  0.2610221687194996  0.5094730489347883  0.0174572101793503   T   T   T
  0.1216970773400715  0.2540659234568736  0.4874219404862033   T   T   T
  0.3258304766213748  0.1342201835686546  0.7710789943702921   T   T   T
  0.1844865324022351  0.8657936451464618  0.2303315697558102   T   T   T
  0.0636400686888167  0.6025951800782485  0.7465196558132580   T   T   T
  0.9375958162597200  0.3742714622096441  0.2496925555303494   T   T   T
  0.8012020089622817  0.1218142262737062  0.7512445171733633   T   T   T
  0.6963040091589816  0.8742453205035859  0.2536245968127145   T   T   T
  0.5641209993925093  0.6449650998115548  0.7507745949781213   T   T   T
  0.4402639729367021  0.3750641193185959  0.2575769109968256   T   T   T
  0.3466427955037377  0.2517438965206130  0.0031605667724371   T   T   T
  0.1583084558991282  0.9054104960706860  0.7238814018528692   T   T   T
  0.0700904285809158  0.6330188929191771  0.2538033924874606   T   T   T
  0.9646147561438413  0.8871227132827655  0.2749739503485955   T   T   T
  0.0932532516162773  0.7528954173290100 -0.0289363769858305   T   T   T
  0.9189935384252101  0.3798297111973575  0.7602213398727401   T   T   T
 -0.0247686048046272  0.5035959735667681  0.5180937366089989   T   T   T
  0.8018817675093248  0.1055984564987837  0.2433523477606542   T   T   T
  0.6848651704570569  0.3653573441219820  0.2330119323728327   T   T   T
  0.8928580220541302  0.2433382916727248 -0.0171552491061887   T   T   T
  0.7325714227130256  0.8822766260271473  0.7532819942107211   T   T   T
  0.5347505462153765  0.0930992947624563  0.7068201039491957   T   T   T
  0.7989822282665298  0.0206436397234608  0.5253614240629206   T   T   T
  0.5696071418113816  0.6406006417145644  0.2571481805747789   T   T   T
  0.4267926015791162  0.8754224075001981  0.2531125432679051   T   T   T
  0.6411576416599498  0.7190717242149469 -0.0240742361062798   T   T   T
  0.3707148680247697  0.3220385294766322  0.7280109006646570   T   T   T
  0.3302090141747797  0.6681648056701793  0.7518728782097022   T   T   T
  0.5354227653999095  0.5042461025687283  0.5238141139723279   T   T   T
  0.3160646732086655  0.1244943144469175  0.2647090071315797   T   T   T
  0.1925245603591520  0.3858084585695733  0.2725024134166995   T   T   T
