Sr Co O 
 1.0000000000000000
     3.7901468797941105    3.9751365600605473    0.0000000000000000
     3.7901468797941105   -3.9751365600605473    0.0000000000000000
     0.0000000000000000    0.0000000000000000  -15.3831206467116939
 Sr  Co  O  
   8   8  20
Selective dynamics
Direct
 -0.0043105566101761  0.0043105566101761  0.0092312775400329   T   T   T
 -0.0089351101434668  0.0089351101434668  0.7425935825650033   T   T   T
 -0.0147293435261763  0.0147293435261764  0.4991730182402129   T   T   T
 -0.0081078838626541  0.0081078838626541  0.2506804550229007   T   T   T
  0.5043105566101760  0.4956894433898243  0.0092312775400329   T   T   T
  0.5089351101434667  0.4910648898565336  0.7425935825650033   T   T   T
  0.5147293435261762  0.4852706564738241  0.4991730182402129   T   T   T
  0.5081078838626539  0.4918921161373465  0.2506804550229007   T   T   T
  0.4927267219842418 -0.0072732780157583  0.8699649637977713   T   T   T
  0.5017121610261307  0.0017121610261305  0.6210019461773377   T   T   T
  0.5023351078919313  0.0023351078919311  0.3785686714602491   T   T   T
  0.4967968206034697 -0.0032031793965304  0.1272027249555578   T   T   T
  0.0072732780157583  0.5072732780157592  0.8699649637977713   T   T   T
 -0.0017121610261309  0.4982878389738700  0.6210019461773377   T   T   T
 -0.0023351078919314  0.4976648921080695  0.3785686714602491   T   T   T
  0.0032031793965305  0.5032031793965314  0.1272027249555579   T   T   T
  0.5135884771262917  0.0135884771262917 -0.0138883489929153   T   T   T
  0.2500000000000000  0.2500000000000002  0.8677179500892007   T   T   T
  0.4642040962641769 -0.0357959037358233  0.7505924319064228   T   T   T
  0.2500000000000000  0.2500000000000002  0.6235492860641414   T   T   T
  0.4487477730762728 -0.0512522269237273  0.4981061451954232   T   T   T
  0.2500000000000000  0.2500000000000002  0.3798303233500724   T   T   T
  0.4632664445793028 -0.0367335554206973  0.2633867223706725   T   T   T
  0.2499999999999996  0.7500000000000009  0.1162556116150303   T   T   T
  0.2500000000000000  0.2500000000000002  0.1269238669254791   T   T   T
 -0.0135884771262921  0.4864115228737088 -0.0138883489929153   T   T   T
  0.7500000000000000  0.7500000000000011  0.8677179500892008   T   T   T
  0.0357959037358230  0.5357959037358240  0.7505924319064228   T   T   T
  0.7499999999999999  0.2500000000000003  0.6249542455926346   T   T   T
  0.7500000000000000  0.7500000000000011  0.6235492860641410   T   T   T
  0.0512522269237271  0.5512522269237281  0.4981061451954235   T   T   T
  0.7499999999999999  0.2500000000000003  0.3856080128565482   T   T   T
  0.7500000000000000  0.7500000000000011  0.3798303233500725   T   T   T
  0.0367335554206974  0.5367335554206984  0.2633867223706725   T   T   T
  0.7499999999999999  0.2500000000000003  0.1339121669884514   T   T   T
  0.7500000000000000  0.7500000000000011  0.1269238669254791   T   T   T
