Sr Co O 
 1.0000000000000000
    -7.7039527670669408   -0.0000000000000005   -0.0000000000000000
    -3.8519763835334704   -0.0090221757001531   -7.7847659853599209
    -3.8519763835334704   -8.0372855526156268   -0.0087468434421566
 Sr  Co  O  
   8   8  20
Selective dynamics
Direct
 -0.0097429514709449  0.0213655369870119  0.0109348669836073   T   T   T
  0.2597429514709441  0.4786344630129890 -0.0109348669836069   T   T   T
  0.4774425475003258  0.0213655369870119  0.0109348669836071   T   T   T
  0.7725574524996732  0.4786344630129890 -0.0109348669836070   T   T   T
  0.5085974624486935  0.4876255405725459  0.5014814782328261   T   T   T
  0.7414025375513056  0.0123744594274547  0.4985185217671734   T   T   T
  0.0022955187459345  0.4876255405725459  0.5014814782328262   T   T   T
  0.2477044812540654  0.0123744594274547  0.4985185217671735   T   T   T
  0.0169573491534635  0.7284389812438040  0.7376463204492680   T   T   T
  0.2547166927222285  0.2401210035020741  0.7504456110534680   T   T   T
  0.4982176977907387  0.7625129317279966  0.7410516726905264   T   T   T
  0.7397541678134980  0.2701253820262908  0.7503662823467133   T   T   T
  0.5102458321865009  0.2298746179737100  0.2496337176532871   T   T   T
  0.7517823022092613  0.7374870682720042  0.2589483273094735   T   T   T
 -0.0047166927222286  0.2598789964979267  0.2495543889465316   T   T   T
  0.2330426508465343  0.7715610187561986  0.2623536795507314   T   T   T
  0.1792043256673706  0.7812333693214665  0.7972982007019119   T   T   T
  0.1310562424400802  0.4844495171123252  0.7534379980075135   T   T   T
  0.5308913528755961  0.2274395999432758  0.7474441773305346   T   T   T
  0.1250000000000001  0.2500000000000004  0.0000000000000002   T   T   T
  0.3700775961448762 -0.0060088445782403  0.7658536522884868   T   T   T
  0.7422641043092510  0.7812333693214665  0.7972982007019117   T   T   T
  0.5927175852232826  0.5318919914180237  0.7826728381354114   T   T   T
 -0.0057751301494054  0.2274395999432758  0.7474441773305347   T   T   T
  0.6249999999999992  0.2500000000000004  0.0000000000000000   T   T   T
  0.7191086471244035  0.2725604000567250  0.2525558226694651   T   T   T
  0.3800558416812641  0.2427998855208713  0.4970884311165994   T   T   T
  0.6572824147767173 -0.0318919914180231  0.2173271618645872   T   T   T
  0.0707956743326269  0.7187666306785362  0.2027017992980888   T   T   T
  0.6249999999999997  0.7500000000000016  0.4999999999999994   T   T   T
  0.8799224038551230  0.5060088445782408  0.2341463477115133   T   T   T
  0.2557751301494053  0.2725604000567249  0.2525558226694653   T   T   T
  0.8699441583187352  0.2572001144791296  0.5029115688834003   T   T   T
  0.1189437575599191  0.0155504828876758  0.2465620019924859   T   T   T
  0.5077358956907472  0.7187666306785362  0.2027017992980885   T   T   T
  0.1249999999999989  0.7500000000000016  0.4999999999999997   T   T   T
