Sr Co O 
 1.0000000000000000
    -3.9148527259808654   -0.0167694012126650   -3.8343617073103200
    -0.0167694012126654   -3.9148527259808548   -3.8343617073103204
   -11.6738888502238947  -11.6738888502238645    7.5484291138458870
 Sr  Co  O  
   8   8  21
Selective dynamics
Direct
 -0.0000000000000000 -0.0000000000000000  0.0000000000000000   T   T   T
  0.6374429759817631  0.6374429759817617  0.1274937955169459   T   T   T
  0.2630128788011431  0.2630128788011430  0.2545675320498491   T   T   T
  0.8840432777424347  0.8840432777424321  0.3780565137271641   T   T   T
  0.4999999999999999  0.5000000000000001  0.5000000000000001   T   T   T
  0.1159567222575661  0.1159567222575663  0.6219434862728356   T   T   T
  0.7369871211988591  0.7369871211988549  0.7454324679501512   T   T   T
  0.3625570240182371  0.3625570240182360  0.8725062044830538   T   T   T
  0.6779877048834988  0.6779877048835009  0.9402765633673836   T   T   T
  0.3220122951164988  0.3220122951164986  0.0597234366326160   T   T   T
  0.9353937334832139  0.9353937334832148  0.1906625999049700   T   T   T
  0.5733518057866301  0.5733518057866285  0.3131830271257981   T   T   T
  0.1907106849735728  0.1907106849735740  0.4379962013818843   T   T   T
  0.8092893150264288  0.8092893150264237  0.5620037986181160   T   T   T
  0.4266481942133700  0.4266481942133697  0.6868169728742011   T   T   T
  0.0646062665167844  0.0646062665167856  0.8093374000950303   T   T   T
  0.0000000000000002  0.4999999999999998 -0.0000000000000001   T   T   T
  0.4999999999999996  0.0000000000000000 -0.0000000000000000   T   T   T
  0.6384350521319965  0.1528594537927612  0.1139845741001911   T   T   T
  0.1528594537927615  0.6384350521319959  0.1139845741001911   T   T   T
  0.2643347595866504  0.7902367035072493  0.2354351583482888   T   T   T
  0.7902367035072504  0.2643347595866493  0.2354351583482892   T   T   T
  0.7552864407237978  0.7552864407237972  0.2489305168229831   T   T   T
  0.8985887570142321  0.3824042588658303  0.3736318183919524   T   T   T
  0.3824042588658319  0.8985887570142316  0.3736318183919525   T   T   T
  0.3945001199100407  0.3945001199100399  0.3683996979474268   T   T   T
  0.4999999999999997 -0.0000000000000007  0.5000000000000000   T   T   T
  0.0000000000000004  0.4999999999999994  0.4999999999999997   T   T   T
  0.0000000000000002  0.0000000000000002  0.5000000000000000   T   T   T
  0.1014112429857669  0.6175957411341698  0.6263681816080475   T   T   T
  0.6175957411341703  0.1014112429857652  0.6263681816080473   T   T   T
  0.6054998800899604  0.6054998800899576  0.6316003020525730   T   T   T
  0.7356652404133495  0.2097632964927487  0.7645648416517108   T   T   T
  0.2097632964927495  0.7356652404133486  0.7645648416517103   T   T   T
  0.2447135592762017  0.2447135592762018  0.7510694831770170   T   T   T
  0.3615649478680045  0.8471405462072388  0.8860154258998097   T   T   T
  0.8471405462072424  0.3615649478680001  0.8860154258998097   T   T   T
