Sr Co O 
 1.0000000000000000
    -8.0240915756857287    0.0000000000000000   -0.0000000000000000
     0.0000000000000000   -7.7485084961787205    0.0000000000000000
     4.0120457878428644   -0.0000000000000000    7.6271493408228137
 Sr  Co  O  
   8   8  21
Selective dynamics
Direct
  0.0129203848342978  0.0102278752130089 -0.0095510971000745   T   T   T
  0.2724714819343723  0.0102278752130089  0.5095510971000753   T   T   T
  0.4775285180656277  0.0102278752130089 -0.0095510971000745   T   T   T
  0.7370796151657019  0.0102278752130089  0.5095510971000753   T   T   T
  0.0104052178550472  0.4879039678561242 -0.0033768389671451   T   T   T
  0.2637820568221923  0.4879039678561242  0.5033768389671459   T   T   T
  0.4862179431778075  0.4879039678561242 -0.0033768389671451   T   T   T
  0.7395947821449522  0.4879039678561242  0.5033768389671459   T   T   T
  0.8750000000000006  0.7391909009487826  0.2500000000000004   T   T   T
  0.1292539806425722  0.7451135634287472  0.7585079612851463   T   T   T
  0.3749999999999999  0.7560156776725095  0.2500000000000005   T   T   T
  0.6207460193574270  0.7451135634287475  0.7414920387148548   T   T   T
  0.8750000000000006  0.2561648204498920  0.2500000000000004   T   T   T
  0.1184217012352797  0.2481688694737218  0.7368434024705605   T   T   T
  0.3749999999999999  0.2501312025526798  0.2500000000000005   T   T   T
  0.6315782987647197  0.2481688694737218  0.7631565975294411   T   T   T
  0.0859089030384036  0.7970322396913007  0.2500000000000005   T   T   T
  0.3750000000000001  0.7456290146167645  0.7500000000000012   T   T   T
  0.1116706201790641 -0.0255749423633104  0.7233412403581293   T   T   T
  0.2558970194618083  0.7441576399156965  0.0117940389236165   T   T   T
  0.6640910969615968  0.7970322396913007  0.2500000000000005   T   T   T
  0.3749999999999999  0.0107871752643267  0.2500000000000005   T   T   T
  0.4941029805381917  0.7441576399156967  0.4882059610763841   T   T   T
  0.8749999999999999  0.7456290146167640  0.7500000000000012   T   T   T
  0.6383293798209353 -0.0255749423633104  0.7766587596418723   T   T   T
  0.7551996678141558  0.2246613595642157  0.0103993356283110   T   T   T
  0.1143931224338246  0.2419767584435185  0.2500000000000005   T   T   T
  0.8750000000000006  0.5135349553072950  0.2500000000000004   T   T   T
 -0.0051996678141555  0.2246613595642157  0.4896006643716900   T   T   T
  0.3750000000000001  0.2524275724977500  0.7500000000000012   T   T   T
  0.1033554618154740  0.5184922810146732  0.7067109236309490   T   T   T
  0.2408885453771551  0.2525376991374909 -0.0182229092456900   T   T   T
  0.6356068775661758  0.2419767584435185  0.2500000000000005   T   T   T
  0.3749999999999999  0.4924037176122470  0.2500000000000005   T   T   T
  0.5091114546228451  0.2525376991374909  0.5182229092456910   T   T   T
  0.8749999999999999  0.2524275724977501  0.7500000000000012   T   T   T
  0.6466445381845256  0.5184922810146732  0.7932890763690529   T   T   T
