Sr Co O 
 1.0000000000000000
     3.8651218577271127   -3.9982462999099146   -0.0128033287458878
    -3.8200708927292646    0.0192494506495574   -7.6694257033465085
     7.6731350750579130    7.9404839624401093   -0.0362032584561489
 Sr  Co  O  
   8   8  20
Selective dynamics
Direct
 -0.0121408389421319  0.0058979732975560 -0.0027206657811179   T   T   T
  0.7529563121990399  0.5078991535008632  0.8824413538384021   T   T   T
  0.4878527758926016 -0.0122118611783126  0.7407869702165386   T   T   T
  0.2506661099253250  0.4896385588699432  0.6138505568302745   T   T   T
  0.0110852030520535 -0.0084446525871323  0.5019760608954031   T   T   T
  0.7609333924797451  0.5030758705550551  0.3755395951913923   T   T   T
  0.4963940406983728  0.0005208292037565  0.2520093865280267   T   T   T
  0.2507666472855615  0.5154163335257104  0.1342790644364694   T   T   T
  0.8637510027637979  0.7378596549410509  0.1845834442599253   T   T   T
  0.6272523984000031  0.2435494648361420  0.0716163984962886   T   T   T
  0.3481774429412611  0.7541986011478610  0.9457956899692186   T   T   T
  0.1299826101087787  0.2561278264982841  0.8143435181231432   T   T   T
  0.8962460788657478  0.7447494798127537  0.6812056021583613   T   T   T
  0.6190279648360287  0.2438304876948284  0.5519874641911492   T   T   T
  0.3897066359821669  0.7562467093272064  0.4390541500046097   T   T   T
  0.1367932769914678  0.2651614854510521  0.3143053915691329   T   T   T
  0.6294690785201712  0.7691584048360910  0.0516186133946114   T   T   T
  0.1059087674644951  0.7669827190437029  0.0751714356976843   T   T   T
  0.6920447956237135  0.4769205107072658  0.1110266908070626   T   T   T
  0.9126216815889973  0.2803043617852416  0.9352633952403892   T   T   T
  0.4981398774833350  0.0125158812116824 -0.0269717094679872   T   T   T
  0.0995521663768911  0.7525381755453988  0.8187253447616436   T   T   T
  0.2717784350265828  0.4984239967418412  0.8565394033544351   T   T   T
  0.3683171295589011  0.2338467557043279  0.7034164477279600   T   T   T
 -0.0244137206102363  0.0162427065144001  0.7608740057808003   T   T   T
  0.6198070818276648  0.7344273656648903  0.5840504487551212   T   T   T
  0.1273480076137466  0.7420703741422368  0.5592767600219917   T   T   T
  0.7550526517804427  0.4761676045779931  0.6397664031046268   T   T   T
  0.3543616241406215  0.2249128380483832  0.4209835923470224   T   T   T
  0.8987262556514909  0.2462748879588132  0.4478833477929008   T   T   T
  0.5365403282583624  0.0066193815953314  0.5166635735819923   T   T   T
  0.1328048855235263  0.7726490818217117  0.3138044176785263   T   T   T
  0.6572103059970722  0.7764977906685316  0.3092359175695085   T   T   T
  0.2793152814569337  0.5142931815508122  0.3668402516895936   T   T   T
  0.8656983221206942  0.2260472723743415  0.1969543591801848   T   T   T
  0.3352658393723654  0.2195908337300545  0.1703233177987359   T   T   T
