Sr Co O 
 1.0000000000000000
    -3.8964615237733007    3.9735667732806217    3.9120664010986528
     3.9107529638503387   -0.0313602632361222    7.8688776507342659
     3.8271702758079336    7.8685295816314325    0.0101301363225204
 Sr  Co  O  
   8   8  21
Selective dynamics
Direct
  0.0157636292017032 -0.0186420014837241 -0.0129294638418050   T   T   T
  0.2702362623561756  0.3872942633002268  0.8459248718684105   T   T   T
  0.5004904781210118  0.7508847150359995  0.7407851722421788   T   T   T
  0.7552497942752517  0.1073524867165282  0.6522970088289266   T   T   T
 -0.0150192257559473  0.5110983379100064  0.5067544271813731   T   T   T
  0.2338276451160138  0.8639077658632149  0.3883324316350203   T   T   T
  0.5180324833970359  0.2489392804825762  0.2550252900260106   T   T   T
  0.7184842814608444  0.6504811626415891  0.1219581085726369   T   T   T
 -0.0338794953225791  0.2336719637832473  0.3065013598608410   T   T   T
  0.2523663723095203  0.6338349648921009  0.1197672932586259   T   T   T
  0.5164183236142026 -0.0039457130870376  0.0002264005124868   T   T   T
  0.7447831018884212  0.3766108107044309  0.8637995587082451   T   T   T
  0.0021891112712259  0.7442217080367940  0.7513531366546375   T   T   T
  0.2650815601252436  0.1273778694970389  0.6227905287060602   T   T   T
  0.4952757037330278  0.5033183604665007  0.4917465863151548   T   T   T
  0.7393536908278987  0.8733572227586379  0.3766787309669112   T   T   T
  0.8993151362171372  0.0645697940795452  0.2716677775778915   T   T   T
  0.4842510574215999  0.4735036205997167  0.0182847294662715   T   T   T
  0.1291433153099466  0.6648636736173735  0.9552169119378950   T   T   T
  0.3584472538189558  0.8259512431930151  0.0654318862282317   T   T   T
  0.7660073373742580  0.8667158679137859  0.8758791581152285   T   T   T
  0.3762645123944478  0.0849355857891296  0.8459620550731018   T   T   T
  0.6708560889338535  0.1868455242021264  0.9460528955577059   T   T   T
  0.0247801693466116  0.2537188041816957  0.7349087547796257   T   T   T
  0.6348271925392071  0.4447821774917330  0.6769497712055805   T   T   T
  0.8681677837542844  0.5373965769578307  0.8498989777662799   T   T   T
  0.2295000853283064  0.6166677413347721  0.6331225442913195   T   T   T
  0.8709363547420491  0.8034649991687814  0.5648594621943167   T   T   T
  0.1424893278123209  0.9351312232016170  0.6861329830166651   T   T   T
  0.5208129626651652  0.0043721117756898  0.5110766804006441   T   T   T
  0.1687711537264038  0.1929355426544670  0.4046886804744567   T   T   T
  0.4145480307930220  0.3124351801468496  0.5511008947093133   T   T   T
  0.7664096967590861  0.4069150331897495  0.3171385296269408   T   T   T
  0.3277025870447297  0.5595242559695714  0.3072953115524234   T   T   T
  0.5835068145434370  0.6924697230911809  0.4371663959451980   T   T   T
 -0.0397279648795253  0.7485114146874278  0.2474157303637424   T   T   T
  0.5743375643744366  0.9595268499608901  0.1937384571391694   T   T   T
