Sr Co O 
 1.0000000000000000
     3.9189278033226889    0.0000000000000000    0.0000000000000000
     0.0000000000000000    3.8189006791936331    0.0000000000000000
     0.0000000000000000    0.0000000000000000   23.7649618424683524
 Sr  Co  O  
   6   6  12
Selective dynamics
Direct
  0.0000000000000000  0.0000000000000000  0.0071494404537206   T   T   T
  0.0000000000000000  0.0000000000000000  0.1552953473887954   T   T   T
  0.0000000000000000  0.0000000000000000  0.3338967195041950   T   T   T
  0.0000000000000000  0.0000000000000000  0.4809384991770757   T   T   T
  0.0000000000000000  0.0000000000000000  0.6835330321024015   T   T   T
  0.0000000000000000  0.0000000000000000  0.8397599001048152   T   T   T
  0.5000000000000004  0.4999999999999998  0.0918814244144259   T   T   T
  0.5000000000000004  0.4999999999999998  0.2336258647936744   T   T   T
  0.5000000000000004  0.4999999999999998  0.4009311231017913   T   T   T
  0.5000000000000004  0.4999999999999998  0.5794283452619937   T   T   T
  0.5000000000000004  0.4999999999999998  0.7609785742388924   T   T   T
  0.5000000000000004  0.4999999999999998  0.9248510332028195   T   T   T
  0.0000000000000000  0.4999999999999998  0.0888455944283130   T   T   T
  0.5000000000000004  0.0000000000000000  0.0901656953239840   T   T   T
  0.5000000000000004  0.4999999999999998  0.3108593481272207   T   T   T
  0.0000000000000000  0.4999999999999998  0.4145751926275236   T   T   T
  0.5000000000000004  0.0000000000000000  0.4084915722286690   T   T   T
  0.5000000000000004  0.0000000000000000  0.5492175005736136   T   T   T
  0.5000000000000004  0.4999999999999998  0.6554163447267822   T   T   T
  0.0000000000000000  0.4999999999999998  0.7560576730442365   T   T   T
  0.5000000000000004  0.0000000000000000  0.7549067454253794   T   T   T
  0.5000000000000004  0.4999999999999998  0.8458150062492747   T   T   T
  0.0000000000000000  0.4999999999999998  0.9394243627413855   T   T   T
  0.5000000000000004  0.0000000000000000  0.9439556296678813   T   T   T
