Sr Co O 
 1.0000000000000000
    -7.7429170359740063   -0.0048781489449202    0.0162676816345842
    -0.0048499571374336   -7.8566523317329979   -0.0465901029138682
     3.8543557654764338    0.0501177835846947    8.0422697488036903
 Sr  Co  O  
   8   8  20
Selective dynamics
Direct
 -0.0051524309512278  0.0206845089076017 -0.0232274039123639   T   T   T
  0.2698943984919866  0.0141716064907232  0.5257864043619491   T   T   T
  0.4810254612851877  0.0219239086862614 -0.0193415490824417   T   T   T
  0.7521018709678011  0.0269497195378899  0.5255027494702655   T   T   T
  0.0033337504281980  0.4963629710789159 -0.0250458881135246   T   T   T
  0.2684362479774848  0.4897765478771551  0.5243503173614724   T   T   T
  0.4844472768135004  0.4876036053867881 -0.0213282732048847   T   T   T
  0.7636810965618194  0.4882945429678835  0.5216348154748962   T   T   T
  0.8509494814889226  0.7769165783594225  0.2886300926994450   T   T   T
  0.1311412470313731  0.7586350113816108  0.7507506932482714   T   T   T
  0.4000193242961195  0.7184233816102453  0.2520233683480679   T   T   T
  0.6173161056762126  0.7598614002656059  0.7305265284476693   T   T   T
  0.8796422490551065  0.2155548291494066  0.2448374445258310   T   T   T
  0.1273886128451246  0.2554717721686879  0.7501482187134240   T   T   T
  0.3688603558280300  0.2617274185180178  0.2521296069780637   T   T   T
  0.6274863086049144  0.2614520593712870  0.7517977793613906   T   T   T
  0.8330840667563967 -0.0393659409365645  0.1717258205273568   T   T   T
  0.0379139361130982  0.7380542750643253  0.4862963326417881   T   T   T
  0.4128089075808534  0.7575619251929609  0.7828059339691196   T   T   T
  0.1183340035625608 -0.0032458225951362  0.7363239739752853   T   T   T
  0.2600368981484881  0.7919663625616454  0.0436325338164932   T   T   T
  0.6449506953380454  0.6448634363395591  0.2461366293058238   T   T   T
  0.4837786681633636  0.7943145637172894  0.4673498012655929   T   T   T
  0.8662576546714305  0.7558305251842196  0.7580331274063591   T   T   T
  0.6345748812091814  0.0190596088904429  0.7645644182055916   T   T   T
  0.7758568770137024  0.2961603190869508  0.0323972057282400   T   T   T
  0.1508124478577569  0.1681309720425231  0.2541239169485588   T   T   T
 -0.0122959911252565  0.2623123034655480  0.4690632511605074   T   T   T
  0.3696175007531497  0.2545958146141627  0.7513290321261143   T   T   T
  0.1312366429409227  0.5183835383670080  0.7566682293153687   T   T   T
  0.2499653764632920  0.2553821845976869  0.0056455393098308   T   T   T
  0.6005380077606196  0.2128095581570179  0.2500171460470971   T   T   T
  0.2883227246156063  0.5037604163243400  0.2527941223559484   T   T   T
  0.4995706150808206  0.2521819103056567  0.4958786430555650   T   T   T
  0.8836369357630163  0.2590589411025276  0.7470581653363793   T   T   T
  0.6254278640813381  0.5043749064236950  0.7489811913709891   T   T   T
