Sr Co O 
 1.0000000000000000
     3.7169965405514835    0.0000000000000000    0.0000000000000000
     0.0000000000000000   -7.9608131141641678    7.8984267559246462
     0.0000000000000000   -3.9764437733104678  -11.8430592692096077
 Sr  Co  O  
   8   8  21
Selective dynamics
Direct
  0.0000000000000000 -0.0109908720951396  0.0003705208345009   T   T   T
  0.0000000000000000  0.1243069474143545  0.7598056577554009   T   T   T
  0.0000000000000000  0.2567483875637815  0.4918017005909670   T   T   T
  0.0000000000000000  0.3898981881950844  0.2564611501039685   T   T   T
  0.0000000000000000  0.5067597026788730  0.0074840855421226   T   T   T
  0.0000000000000000  0.6121948908094541  0.7462824996050169   T   T   T
  0.0000000000000000  0.7447041982877588  0.4946602319062333   T   T   T
  0.0000000000000000  0.8714189172348136  0.2431012592187110   T   T   T
  0.4999999999999997  0.8741443832807341  0.7526846648082111   T   T   T
  0.4999999999999997 -0.0073948093458814  0.4953274662988321   T   T   T
  0.4999999999999997  0.1246336335835630  0.2567390459126194   T   T   T
  0.4999999999999997  0.2542158503420658 -0.0051586703309222   T   T   T
  0.4999999999999997  0.3804384955364505  0.7541495233837840   T   T   T
  0.4999999999999997  0.5018964360166059  0.4994200805727337   T   T   T
  0.4999999999999997  0.6276631595014253  0.2504565243141282   T   T   T
  0.4999999999999997  0.7479077138841479 -0.0011340196178173   T   T   T
  0.4999999999999997  0.8093691273349999  0.8636667732184817   T   T   T
  0.4999999999999997  0.0452282265141092  0.8761788829297109   T   T   T
  0.4999999999999997  0.9426003069442497  0.6436743435187886   T   T   T
  0.0000000000000000  0.0407896660857061  0.5330581824305619   T   T   T
  0.4999999999999997  0.0769598495471385  0.3859670720517518   T   T   T
  0.0000000000000000  0.1402043969463401  0.2250597491549037   T   T   T
  0.4999999999999997  0.3083549221217015  0.3571432304179943   T   T   T
  0.0000000000000000  0.2301411918238468  0.0144289031590814   T   T   T
  0.4999999999999997  0.4272659173509427  0.1218000685155520   T   T   T
  0.4999999999999997  0.2948267599063343  0.8577732738093318   T   T   T
  0.0000000000000000  0.3345730010089618  0.7230391698037096   T   T   T
  0.4999999999999997  0.5536313037808153  0.8726631870583464   T   T   T
  0.4999999999999997  0.4228193577098489  0.6216216301790749   T   T   T
  0.0000000000000000  0.5051191178718466  0.5052555225440052   T   T   T
  0.4999999999999997  0.7047906584279992  0.6355979217837046   T   T   T
  0.4999999999999997  0.5704569259798856  0.3784921466814608   T   T   T
  0.0000000000000000  0.6292384014405564  0.2503291282968007   T   T   T
  0.4999999999999997  0.8218005612544077  0.3805863845872540   T   T   T
  0.4999999999999997  0.6903142398861952  0.1260856857309388   T   T   T
  0.0000000000000000  0.7500292487808573 -0.0039880059706152   T   T   T
  0.4999999999999997  0.9529416819456269  0.1291149460594597   T   T   T
