Sr Co O 
 1.0000000000000000
    -3.7201458306894399    0.0000000000000000    0.0000000000000000
     0.0000000000000000    4.0008589702778927    7.9358581819352230
     0.0000000000000000   12.0271657711220641   -7.9486533667308308
 Sr  Co  O  
   8   8  20
Selective dynamics
Direct
 -0.0000000000000000 -0.0121975070037744 -0.0029929306953310   T   T   T
 -0.0000000000000000  0.3788401579623397  0.8802771408634688   T   T   T
 -0.0000000000000000  0.7383336553690345  0.7662976559524923   T   T   T
 -0.0000000000000000  0.1504774355662953  0.6164150968756628   T   T   T
 -0.0000000000000000  0.4851624781928948  0.4893087218788118   T   T   T
 -0.0000000000000000  0.8831769696824111  0.3660609601456428   T   T   T
 -0.0000000000000000  0.2579326615706621  0.2556382768828842   T   T   T
 -0.0000000000000000  0.6270167477723543  0.1278471901478129   T   T   T
  0.5000000000000004  0.3208455974485714  0.0623946528427973   T   T   T
  0.5000000000000004  0.6848423727474479  0.9419016626626099   T   T   T
  0.5000000000000004  0.0546850237212396  0.8105372693847001   T   T   T
  0.5000000000000004  0.4367935029839302  0.6872546864010709   T   T   T
  0.5000000000000004  0.8393683424434155  0.5673937240833430   T   T   T
  0.5000000000000004  0.1893330909252528  0.4334393397035776   T   T   T
  0.5000000000000004  0.5587729482835488  0.3098802220884602   T   T   T
  0.5000000000000004  0.9306721383003352  0.1889607485672610   T   T   T
 -0.0000000000000000  0.2664251082882554  0.0677708521661479   T   T   T
  0.5000000000000004  0.1727887300237648  0.9234070785801135   T   T   T
  0.5000000000000004  0.4949459139110298  0.0000095696874022   T   T   T
 -0.0000000000000000  0.6866689247823102  0.9381642011318357   T   T   T
  0.5000000000000004  0.5477060359658411  0.8055560412384472   T   T   T
  0.5000000000000004  0.8827537499655909  0.8696805867981737   T   T   T
  0.5000000000000004  0.9068787142721088  0.6908381003488578   T   T   T
  0.5000000000000004  0.2151449191237976  0.7442399834780244   T   T   T
 -0.0000000000000000  0.4849047088317819  0.6700276867059659   T   T   T
  0.5000000000000004  0.3260529433539230  0.5678594355489534   T   T   T
  0.5000000000000004  0.6836343417754650  0.4809730320116762   T   T   T
  0.5000000000000004 -0.0001209360064577  0.5023370382576793   T   T   T
 -0.0000000000000000  0.1838594844613388  0.4370150099636306   T   T   T
  0.5000000000000004  0.0623076055523540  0.3015659726992476   T   T   T
  0.5000000000000004  0.3766125157778353  0.3730372482213267   T   T   T
 -0.0000000000000000  0.5772892192483711  0.3202136372194095   T   T   T
  0.5000000000000004  0.4260437674376255  0.1864282670211194   T   T   T
  0.5000000000000004  0.7521362749388042  0.2537446376462706   T   T   T
 -0.0000000000000000  0.9768577709885388  0.1744711009162066   T   T   T
  0.5000000000000004  0.8280548209448064  0.0670460193073106   T   T   T
