Sr Co O 
 1.0000000000000000
     3.7267814160081163    0.0000000000000000    0.0000000000000000
     0.0000000000000000   -7.9372021483679056    8.0750813027749757
     0.0000000000000000   -4.0042754725078691  -12.1482098284423667
 Sr  Co  O  
   8   8  20
Selective dynamics
Direct
  0.0000000000000000  0.0068633074527133  0.0147307044066851   T   T   T
  0.0000000000000000  0.1519769580680964  0.7687465496133985   T   T   T
  0.0000000000000000  0.2587625252085148  0.5103236482427254   T   T   T
  0.0000000000000000  0.3747053373228837  0.2341357609706538   T   T   T
  0.0000000000000000  0.5054629976872400  0.0034295658104237   T   T   T
  0.0000000000000000  0.6091138418712462  0.7555108793309581   T   T   T
  0.0000000000000000  0.7133091058673913  0.4774740904347805   T   T   T
  0.0000000000000000  0.8641891943261489  0.2351854361839859   T   T   T
  0.4999999999999999  0.8682741923675601  0.7615851205009261   T   T   T
  0.4999999999999999  0.0027776683891390  0.4834070646105728   T   T   T
  0.4999999999999999  0.1241433115272242  0.2464205638978129   T   T   T
  0.4999999999999999  0.2526705448675374 -0.0001081987315007   T   T   T
  0.4999999999999999  0.3767456936105879  0.7554111514339080   T   T   T
  0.4999999999999999  0.4995761322860890  0.5015922821234400   T   T   T
  0.4999999999999999  0.6211370258154337  0.2458304890060865   T   T   T
  0.4999999999999999  0.7493688315440006  0.0013851912059933   T   T   T
  0.4999999999999999  0.8161786382954394  0.8724771050440081   T   T   T
  0.4999999999999999  0.0428535931194526  0.8374181762487768   T   T   T
  0.4999999999999999  0.1466223680413201  0.6217940823325652   T   T   T
  0.4999999999999999  0.0739670225761888  0.3827701666649753   T   T   T
  0.0000000000000000  0.1754719875692511  0.2849973256883178   T   T   T
  0.4999999999999999  0.1857707388352869  0.1270543568088566   T   T   T
  0.0000000000000000  0.2358649815276115 -0.0060983682884740   T   T   T
  0.4999999999999999  0.4379439044752531  0.1217876710143800   T   T   T
  0.4999999999999999  0.3179186671097088  0.8784276802211531   T   T   T
  0.0000000000000000  0.3654110046144727  0.7409846442531343   T   T   T
  0.4999999999999999  0.5647616516135218  0.8706846580563885   T   T   T
  0.4999999999999999  0.4294906639259242  0.6127806867814770   T   T   T
  0.0000000000000000  0.4837343032049236  0.4914093641854404   T   T   T
  0.4999999999999999  0.7268583874384102  0.6231995989495199   T   T   T
  0.4999999999999999  0.5393998588598780  0.3699407316484590   T   T   T
  0.0000000000000000  0.6322768580577994  0.2559741871430246   T   T   T
  0.4999999999999999  0.8274802021585508  0.4067207087632345   T   T   T
  0.4999999999999999  0.6948292968723413  0.1311819433615045   T   T   T
  0.0000000000000000  0.7553716270218431 -0.0000694654888850   T   T   T
  0.4999999999999999  0.9437175352403938  0.1315043749369664   T   T   T
