Sr Co O 
 1.0000000000000000
     3.9332146020854224    3.9522851179851939    3.8165722417105457
    -3.9332146020854224    3.9522851179851939   -3.8165722417105457
    -7.9298590769163368   -0.0000000000000000    7.6964157534400428
 Sr  Co  O  
   8   8  20
Selective dynamics
Direct
 -0.0039428088450602  0.0069834010127329 -0.0107713256824035   T   T   T
  0.2341266787922220  0.7543051843900679  0.2499536891751113   T   T   T
  0.4983219751438194  0.4864142128038904  0.5135281596344831   T   T   T
  0.7565216840928509  0.2382643348490559  0.7457355414037118   T   T   T
  0.4930165989872684  0.5039428088450605 -0.0107713256824029   T   T   T
  0.7456948156099342  0.2658733212077789  0.2499536891751118   T   T   T
  0.0135857871961105  0.0016780248561820  0.5135281596344828   T   T   T
  0.2617356651509451  0.7434783159071512  0.7457355414037109   T   T   T
  0.5021908826765241 -0.0021908826765231 -0.0099978773846451   T   T   T
  0.7360220126367082  0.7639779873632945  0.2267099904803631   T   T   T
  0.0109230378208065  0.4890769621791936  0.5083292430916037   T   T   T
  0.2559749920712326  0.2440250079287684  0.7561107575858966   T   T   T
  0.0109353106939430  0.4890646893060577  0.0054178354149079   T   T   T
  0.2356114280223452  0.2643885719776555  0.2684457213259816   T   T   T
  0.4922649925884024  0.0077350074115993  0.5051163524848657   T   T   T
  0.7474818075702142  0.7525181924297878  0.7392858876821021   T   T   T
  0.3635254947323664  0.1364745052676346  0.8958813870404755   T   T   T
  0.2213238459354979  0.7435810553437551 -0.0055229987414094   T   T   T
  0.5760447097334520  0.9239552902665507  0.1448737099808350   T   T   T
  0.5253452118636037  0.5410475279237855  0.2809718352720263   T   T   T
  0.8875599218218100  0.6124400781781925  0.6133806746584852   T   T   T
  0.7357969789769455  0.2362621167749336  0.4863846602909508   T   T   T
  0.1481757843893217  0.3518242156106794  0.6187873248661162   T   T   T
  0.1123186827727744  0.3876813172272265  0.8601439280132546   T   T   T
 -0.0034536562375125 -0.0432003176180151  0.7591930512482932   T   T   T
  0.8706852999987161  0.6293147000012864  0.1228139879095960   T   T   T
  0.7564189446562467  0.2786761540645035 -0.0055229987414082   T   T   T
  0.1676154038380203  0.3323845961619805  0.1163096424359168   T   T   T
  0.0861995432087575  0.4138004567912429  0.3613139885971553   T   T   T
 -0.0410475279237851 -0.0253452118636024  0.2809718352720256   T   T   T
  0.3754833260536686  0.1245166739463321  0.3609074056918958   T   T   T
  0.3897816295395873  0.1102183704604140  0.6449890693724496   T   T   T
  0.2637378832250670  0.7642030210230568  0.4863846602909504   T   T   T
  0.6427883892568659  0.8572116107431362  0.5926289551583883   T   T   T
  0.6380347823521260  0.8619652176478750  0.8796069133313440   T   T   T
  0.5432003176180165  0.5034536562375131  0.7591930512482934   T   T   T
