Sr Co O 
 1.0000000000000000
    -0.0000000000000001    7.6336487205721060    0.0000000000000002
     7.7519247759095853   -0.0000000000000001   -0.0026817647004857
    -3.8687998565275175   -3.8168243602860530   -8.1282288431230185
 Sr  Co  O  
   8   8  20
Selective dynamics
Direct
  0.0076823349212700  0.0130259328112835  0.0235747987012723   T   T   T
  0.7401483368270592  0.7486687622897298  0.4750330480612019   T   T   T
  0.5115116164079307  0.5294582604140268  0.0184520116317893   T   T   T
  0.2345170678149403  0.2508139975052470  0.4743258201888854   T   T   T
  0.5158924637800020  0.0130259328112835  0.0235747987012723   T   T   T
  0.2348847112341418  0.7486687622897298  0.4750330480612018   T   T   T
  0.0069403952238583  0.5294582604140268  0.0184520116317893   T   T   T
  0.7398087523739437  0.2508139975052470  0.4743258201888854   T   T   T
  0.1141149409106812  0.1136414720263103  0.7282298818213645   T   T   T
  0.8753748166237961  0.8875999595677027  0.2507496332475924   T   T   T
  0.6235764581417913  0.6113993429164855  0.7471529162835872   T   T   T
  0.3839408445112338  0.3987374635443147  0.2678816890224706   T   T   T
  0.6255568161170497  0.1047399801577997  0.7511136322341040   T   T   T
  0.3753016370404102  0.8892418317685105  0.2506032740808224   T   T   T
  0.1264913195292267  0.5888006471826562  0.7529826390584580   T   T   T
  0.8699838793402961  0.3837982882517014  0.2399677586805923   T   T   T
  0.8979514173609167  0.0366909334116419  0.7575382009379044   T   T   T
  0.0006858606151488  0.0198321185334981  0.5013717212302999   T   T   T
  0.8749985055646187  0.6303456715302457  0.2499970111292373   T   T   T
  0.6252222072282497  0.8840659065992066  0.2472900747850555   T   T   T
  0.7357102228690360  0.7635200072623506 -0.0285795542619279   T   T   T
  0.3933559501099889  0.5511348738723314  0.7449242568396550   T   T   T
  0.5127334475874527  0.5544488928315089  0.5254668951749082   T   T   T
  0.3763036054307644  0.1401662671117569  0.2526072108615300   T   T   T
  0.1277437734444618  0.3768309072370747  0.2321667848609884   T   T   T
  0.7343009530624121  0.2601030919826468 -0.0313980938751758   T   T   T
  0.3595867835769853  0.0366909334116418  0.7575382009379042   T   T   T
  0.5161698123652192  0.0367546798719758  0.5323396247304414   T   T   T
  0.3706391829656497  0.6360254615415695  0.2412783659312998   T   T   T
  0.1220678675568052  0.8840659065992066  0.2472900747850555   T   T   T
  0.2321514169890933  0.7766156116382155 -0.0356971660218129   T   T   T
  0.1639661123037864  0.3729096371504499  0.8279322246075775   T   T   T
  0.8515683067296622  0.5511348738723314  0.7449242568396550   T   T   T
  0.0160502878575767  0.5302131023364544  0.5321005757151557   T   T   T
  0.8736450240603000  0.1447276214233268  0.2472900481205999   T   T   T
  0.6044230114165260  0.3768309072370747  0.2321667848609883   T   T   T
