Sr Co O 
 1.0000000000000000
    -3.6883760253533819    0.0000000000000000    0.0000000000000000
     0.0000000000000000    3.9989468321288744    7.9720951600287888
     0.0000000000000000   11.9597020447203857   -7.9535430272565550
 Sr  Co  O  
   8   8  20
Selective dynamics
Direct
 -0.0000000000000000 -0.0131492281722547 -0.0060055156314682   T   T   T
 -0.0000000000000000  0.3850824831415582  0.8769301618687008   T   T   T
 -0.0000000000000000  0.7291484905395194  0.7530611292614889   T   T   T
 -0.0000000000000000  0.1349966551191539  0.6285217824166967   T   T   T
 -0.0000000000000000  0.4798067839421278  0.5051628879392892   T   T   T
 -0.0000000000000000  0.8847935034397594  0.3560212395321252   T   T   T
 -0.0000000000000000  0.2618614664743873  0.2597939355868178   T   T   T
 -0.0000000000000000  0.6271443153831878  0.1207645117100873   T   T   T
  0.4999999999999990  0.3160714213515149  0.0615359902849288   T   T   T
  0.4999999999999990  0.6860131155160982  0.9367007989728771   T   T   T
  0.4999999999999990  0.0617445485922574  0.8129801261816278   T   T   T
  0.4999999999999990  0.4322695391307543  0.6882035231684713   T   T   T
  0.4999999999999990  0.8148582856250760  0.5760268804738075   T   T   T
  0.4999999999999990  0.1936578133825993  0.4343670508190910   T   T   T
  0.4999999999999990  0.5600400332232955  0.3082828174101884   T   T   T
  0.4999999999999990  0.9359290854530046  0.1850291809899555   T   T   T
 -0.0000000000000000  0.2679478824194613  0.0736669433391783   T   T   T
  0.4999999999999990  0.1653810919442777  0.9322030100513961   T   T   T
  0.4999999999999990  0.4973265048087460  0.0032536680776394   T   T   T
 -0.0000000000000000  0.6905926312615205  0.9367612068060374   T   T   T
  0.4999999999999990  0.5611981499670402  0.8108461825048200   T   T   T
  0.4999999999999990  0.8817981589355310  0.8607977104528755   T   T   T
  0.4999999999999990  0.9572264546758079  0.6889463013507439   T   T   T
  0.4999999999999990  0.2377234191953549  0.7610687569025270   T   T   T
 -0.0000000000000000  0.4309958706745535  0.6872329717792240   T   T   T
  0.4999999999999990  0.2896165043592266  0.5631004737235918   T   T   T
  0.4999999999999990  0.6217547427679841  0.6106408009831080   T   T   T
 -0.0000000000000000  0.8441807916596618  0.5321825498908902   T   T   T
 -0.0000000000000000  0.1552440195457564  0.4460741472244880   T   T   T
  0.4999999999999990  0.0697174303679465  0.3109217888182475   T   T   T
  0.4999999999999990  0.3901602591400494  0.3828468425356746   T   T   T
 -0.0000000000000000  0.5914636010520062  0.3421227197932766   T   T   T
  0.4999999999999990  0.4265660686405293  0.1918527562587649   T   T   T
  0.4999999999999990  0.7494636095064567  0.2538775742281820   T   T   T
 -0.0000000000000000  0.9801154363835892  0.1768873717149420   T   T   T
  0.4999999999999990  0.8262585859748262  0.0623395127659316   T   T   T
