Sr Co O 
 1.0000000000000000
     3.7195989259424338    0.0000000000000000    0.0000000000000000
     0.0000000000000000   -7.9996382810600757    7.9224496572102741
     0.0000000000000000   -3.9556484808294536  -11.8392371679088733
 Sr  Co  O  
   8   8  20
Selective dynamics
Direct
  0.0000000000000000  0.0110229087484897  0.0025930504496524   T   T   T
  0.0000000000000000  0.1312211203356483  0.7658252775828758   T   T   T
  0.0000000000000000  0.2554535564920270  0.5180193068550770   T   T   T
  0.0000000000000000  0.3947771452952183  0.2449846862578107   T   T   T
  0.0000000000000000  0.4944452088308650 -0.0031567421137774   T   T   T
  0.0000000000000000  0.6101697781909735  0.7407538240673636   T   T   T
  0.0000000000000000  0.7449951292287459  0.5019626826599233   T   T   T
  0.0000000000000000  0.8578978452402384  0.2347711490229406   T   T   T
  0.5000000000000001  0.8773195219651959  0.7465966331393327   T   T   T
  0.5000000000000001  0.0019962261846184  0.4996015699447827   T   T   T
  0.5000000000000001  0.1065980559092754  0.2463658616746165   T   T   T
  0.5000000000000001  0.2557569938921311  0.0073472893684708   T   T   T
  0.5000000000000001  0.3737439504859694  0.7528192744437150   T   T   T
  0.5000000000000001  0.5036027884943547  0.5022774756839488   T   T   T
  0.5000000000000001  0.6304701704451803  0.2512655488562949   T   T   T
  0.5000000000000001  0.7441612505046474 -0.0025604451213934   T   T   T
  0.0000000000000000  0.8643175893720941  0.7656077096948508   T   T   T
  0.5000000000000001  0.0523762442622912  0.8825880873640882   T   T   T
  0.5000000000000001  0.9337062942303643  0.6088051672443472   T   T   T
  0.5000000000000001  0.1694355252212096  0.6178285204565226   T   T   T
  0.5000000000000001  0.0830844774633375  0.3827611943308802   T   T   T
  0.5000000000000001  0.2092974283639928  0.1697296442245676   T   T   T
  0.0000000000000000  0.2471843662342569  0.0090926724353672   T   T   T
  0.5000000000000001  0.4444212547265038  0.1254681429368798   T   T   T
  0.5000000000000001  0.3093778272080060  0.8754496475037290   T   T   T
  0.0000000000000000  0.3710335816380169  0.7480514123239604   T   T   T
  0.5000000000000001  0.5743137584112551  0.8687904085014800   T   T   T
  0.5000000000000001  0.4274006214896250  0.6101296996883215   T   T   T
  0.0000000000000000  0.4449685501031824  0.4631311246605256   T   T   T
  0.5000000000000001  0.6859906070457366  0.6337123762450116   T   T   T
  0.5000000000000001  0.5663521301619195  0.3858743386661222   T   T   T
  0.0000000000000000  0.6386153742049291  0.2590559578943434   T   T   T
  0.5000000000000001  0.8390409832605862  0.3760303345677831   T   T   T
  0.5000000000000001  0.6892942338086133  0.1196627764080953   T   T   T
  0.0000000000000000  0.7688601770924027 -0.0288638079260588   T   T   T
  0.5000000000000001  0.9372971420327659  0.1176281387946151   T   T   T
