Sr Co O 
 1.0000000000000000
    -3.9377678855453051   -0.0109167999212314   -3.9562588845442863
    -3.7586612468657292    4.0107102946986339    7.7450066117063914
     3.8198554483249105    7.9731790038534340   -3.8178159110522460
 Sr  Co  O  
   8   8  20
Selective dynamics
Direct
 -0.0264749391347768 -0.0299041582356766 -0.0160697784937743   T   T   T
  0.6156178459956316  0.2471702033620183  0.8587791043237180   T   T   T
  0.2452332422675002  0.5101062483564319  0.7461587029424673   T   T   T
  0.8526989486659944  0.7394872849615912  0.6425023193550178   T   T   T
  0.4852926472926953  0.0017782142305173  0.5210286734387859   T   T   T
  0.1462029455006616  0.2787551656180676  0.4028971710034889   T   T   T
  0.7438187625298691  0.5201368146043298  0.2769276614676378   T   T   T
  0.3574098301953983  0.7411203993664309  0.1204637164168781   T   T   T
  0.6318470414288969  0.1417490030937798  0.1859266887868440   T   T   T
  0.1592844872983356  0.3939802246453220  0.0888775969485801   T   T   T
  0.7884228465903306  0.6099982995656821  0.9387549742861564   T   T   T
  0.4198917472092717  0.8706363019699143  0.8198724187892406   T   T   T
  0.0490016386153398  0.1121973841161110  0.6730757585654102   T   T   T
  0.6860216657139259  0.3798412658603808  0.5686441457697110   T   T   T
  0.3058050474442863  0.6357657665213209  0.4476608050244892   T   T   T
  0.9185109335991414  0.8556290061482120  0.3323241044559719   T   T   T
  0.9820959722545645  0.2068940695450656  0.1372381158907499   T   T   T
  0.4161778102624070  0.4396807462117743 -0.0255122991978533   T   T   T
 -0.0722379695159640  0.4855795375510812  0.0311869920319332   T   T   T
  0.1279034721561020  0.7490955958529364  0.8925582907484314   T   T   T
  0.7743945454323242  0.4968518956853307  0.7561530831436174   T   T   T
  0.6126039531817870  0.7337635224253919  0.8816393732224352   T   T   T
  0.7277511236017683 -0.0016878503994867  0.7609278433221586   T   T   T
  0.3205111743250514  0.7535657376893439  0.6272397335835251   T   T   T
  0.2256498992462884  0.0172932412266016  0.7664112849303032   T   T   T
  0.3898182653397355  0.2538790851958958  0.6313561710589105   T   T   T
  0.0255291103099855  0.0169376600671956  0.4660887996899594   T   T   T
  0.8968913849343676  0.2505182723260971  0.6412845881923894   T   T   T
 -0.0215255126278921  0.4998999072533803  0.4928332271714538   T   T   T
  0.5975941720766691  0.2391905416294549  0.3555394574227426   T   T   T
  0.4882823162705949  0.5167832890393156  0.5173180829355677   T   T   T
  0.6147627216382540  0.7758766036810122  0.4036833536843305   T   T   T
  0.2881670768869748  0.5088964930052848  0.2612602570289662   T   T   T
  0.1579289468551204  0.7628574107908862  0.3580706182003201   T   T   T
  0.4770605212327370  0.0077119123602710  0.0370740478403951   T   T   T
  0.8420563979842669  0.7779648961129136  0.1498249271668764   T   T   T
