Sr Co O 
 1.0000000000000000
     3.6991410521767545    0.0000000000000000    0.0000000000000000
     0.0000000000000000    3.8387774179365208    0.0000000000000000
     0.0000000000000000    0.0000000000000000   25.6636376909931521
 Sr  Co  O  
   6   6  13
Selective dynamics
Direct
  0.0000000000000000  0.0000000000000000 -0.0141608937728293   T   T   T
  0.0000000000000000  0.0000000000000000  0.1640207105380358   T   T   T
  0.0000000000000000  0.0000000000000000  0.3535463377098377   T   T   T
  0.0000000000000000  0.0000000000000000  0.5013793840178948   T   T   T
  0.0000000000000000  0.0000000000000000  0.6736292556997556   T   T   T
  0.0000000000000000  0.0000000000000000  0.8285127940822571   T   T   T
  0.5000000000000008  0.4999999999999994  0.0871590558852211   T   T   T
  0.5000000000000008  0.4999999999999994  0.2519332432470703   T   T   T
  0.5000000000000008  0.4999999999999994  0.4310379076084621   T   T   T
  0.5000000000000008  0.4999999999999994  0.5841987513029293   T   T   T
  0.5000000000000008  0.4999999999999994  0.7531561546632816   T   T   T
  0.5000000000000008  0.4999999999999994  0.9065086587085273   T   T   T
  0.5000000000000008  0.4999999999999994  0.0184337819083916   T   T   T
  0.0000000000000000  0.4999999999999994  0.2201847417329412   T   T   T
  0.5000000000000008  0.4999999999999994  0.3221968174331145   T   T   T
  0.0000000000000000  0.4999999999999994  0.4219578072311022   T   T   T
  0.5000000000000008  0.0000000000000000  0.4229320756270297   T   T   T
  0.5000000000000008  0.4999999999999994  0.5119150458685204   T   T   T
  0.5000000000000008  0.0000000000000000  0.5817461397930762   T   T   T
  0.5000000000000008  0.4999999999999994  0.6534109537434950   T   T   T
  0.0000000000000000  0.4999999999999994  0.7440965084131801   T   T   T
  0.5000000000000008  0.0000000000000000  0.7468707676581253   T   T   T
  0.5000000000000008  0.4999999999999994  0.8311517121123714   T   T   T
  0.0000000000000000  0.4999999999999994  0.9203663824891174   T   T   T
  0.5000000000000008  0.0000000000000000  0.9171493458686193   T   T   T
