Sr Co O 
 1.0000000000000000
    -3.7121238065467574    0.0000000000000000    0.0000000000000000
     0.0000000000000000   -8.0079365686552038    0.0000000000000000
     0.0000000000000000    4.0039682843276019   15.8138407994566386
 Sr  Co  O  
   8   8  20
Selective dynamics
Direct
  0.0000000000000000 -0.0002343009546980 -0.0004381349991402   T   T   T
  0.0000000000000000  0.1476968262612308  0.2488185522413928   T   T   T
  0.0000000000000000  0.2758174229011926  0.5048734275206631   T   T   T
 -0.0000000000000000  0.3880731054422407  0.7497625796254640   T   T   T
 -0.0000000000000000  0.4997961659555574 -0.0004381349991402   T   T   T
 -0.0000000000000000  0.6011217259801614  0.2488185522413928   T   T   T
  0.0000000000000000  0.7290560046194697  0.5048734275206631   T   T   T
 -0.0000000000000000  0.8616894741832221  0.7497625796254640   T   T   T
  0.4999999999999998  0.8123338158484091  0.1246676316968193   T   T   T
  0.4999999999999998  0.9303557922323794  0.3607115844647601   T   T   T
  0.4999999999999998  0.0628923237134268  0.6257846474268544   T   T   T
  0.4999999999999998  0.1872080548549064  0.8744161097098141   T   T   T
  0.4999999999999998  0.3112862910987496  0.1225725821974994   T   T   T
  0.4999999999999998  0.4392731972470655  0.3785463944941316   T   T   T
  0.4999999999999998  0.5640158020993574  0.6280316041987156   T   T   T
  0.4999999999999998  0.6882999837313967  0.8765999674627947   T   T   T
  0.4999999999999998  0.7546848374548067  0.0093696749096146   T   T   T
  0.4999999999999998  0.0425878257555438  0.1264374357169664   T   T   T
  0.4999999999999998  0.8715358431607704  0.2430716863215420   T   T   T
  0.4999999999999998  0.1604347381536881  0.3881080074886776   T   T   T
 -0.0000000000000000  0.0417046771944933  0.5834093543889874   T   T   T
  0.4999999999999998  0.2910730918168574  0.6249165465219408   T   T   T
  0.4999999999999998  0.1294378807202955  0.7588757614405924   T   T   T
  0.4999999999999998  0.4168524443336262  0.8758222733381573   T   T   T
  0.4999999999999998  0.2453934516927168 -0.0092130966145663   T   T   T
 -0.0000000000000000  0.3106155848876315  0.1212311697752631   T   T   T
  0.4999999999999998  0.5838496099614229  0.1264374357169664   T   T   T
  0.4999999999999998  0.3761610532711931  0.2523221065423870   T   T   T
 -0.0000000000000000  0.4377196611409664  0.3754393222819337   T   T   T
  0.4999999999999998  0.7276732693349891  0.3881080074886776   T   T   T
  0.4999999999999998  0.5014761451192996  0.5029522902386000   T   T   T
 -0.0000000000000000  0.5638913728189285  0.6277827456378579   T   T   T
  0.4999999999999998  0.8338434547050819  0.6249165465219408   T   T   T
  0.4999999999999998  0.6257116695831719  0.7514233391663445   T   T   T
 -0.0000000000000000  0.6902018393186770  0.8804036786373551   T   T   T
  0.4999999999999998  0.9589698290045301  0.8758222733381573   T   T   T
