Sr Co O 
 1.0000000000000000
     3.8863103577042706   -0.0074358499553514    4.0460363951642311
    -0.0527338355742530   -7.5531195241841260    0.0656105618124018
     7.8136335844270830    0.1147821608307146   -8.1315567705786478
 Sr  Co  O  
   8   8  20
Selective dynamics
Direct
 -0.0071989166253267 -0.0009100348683158  0.0111025713608256   T   T   T
  0.4707367945186104  0.0046464360407652  0.7388883572823881   T   T   T
  0.0216227563968276  0.0154688320349920  0.4800081538981729   T   T   T
  0.5124000076907058  0.0067503288172961  0.2569629691956069   T   T   T
 -0.0058159787508149  0.4792159327779858  0.0077580216388892   T   T   T
  0.5002988917668429  0.4787408775337916  0.7533777842193077   T   T   T
  0.0219335772555045  0.5036519650997781  0.4915362705612856   T   T   T
  0.5123669796218649  0.4917983832135946  0.2492674036741811   T   T   T
  0.5020944930481379  0.7596663319136923 -0.0040839458406517   T   T   T
 -0.0084431069384989  0.7434417111746155  0.7762195484675911   T   T   T
  0.5192831680815548  0.7508106564630328  0.4746603539816721   T   T   T
  0.0111826193551503  0.7449923467552242  0.2417185257608340   T   T   T
  0.4858424454642536  0.2329378300120848 -0.0036575739782016   T   T   T
  0.0046474822777967  0.2585381793112840  0.7446760082871071   T   T   T
  0.5214477945579253  0.2545116497638624  0.5049643238825799   T   T   T
  0.0106638908343545  0.2499889953939695  0.2513286898726151   T   T   T
  0.2864067006881628  0.7335881445806347  0.1110717075725711   T   T   T
  0.2640180711234400  0.7848762543576702  0.8815811757331870   T   T   T
  0.7230687912902655  0.7933794126274861  0.8638811018444276   T   T   T
  0.1043446882938224  0.8014343109896215  0.6392574750117955   T   T   T
  0.2562751266292214  0.7342637162741471  0.3721030721118743   T   T   T
  0.5172020418127010 -0.0195528330653733  0.5106711717492094   T   T   T
  0.7663394964890736  0.7472240262418102  0.3690141534262122   T   T   T
  0.7544591810486714  0.7409610716408987  0.0997084833785415   T   T   T
  0.0185237925159737 -0.0012101987306213  0.2436068024037734   T   T   T
  0.2624538426021646  0.2458384409765240  0.1105319752208751   T   T   T
  0.2270470035449296  0.2158879093204273  0.8755094644626275   T   T   T
  0.7022659191866298  0.2277874000023669  0.8815856955754791   T   T   T
  0.7598412290744991  0.2242726533671417  0.6345343456698427   T   T   T
 -0.0433672150571711  0.5010808666423037  0.7796391513608346   T   T   T
  0.2509584819278897  0.2548990485270463  0.6280480561177062   T   T   T
  0.2853971913714415  0.2624125986123651  0.3790109312297180   T   T   T
  0.5450307825035234  0.5360556998120259  0.5400354258691136   T   T   T
  0.7685645285048531  0.2577327049401376  0.3794749179634547   T   T   T
  0.7237115948912912  0.2401312176128362  0.1128206238299294   T   T   T
  0.0043948768313920  0.4946866274679743  0.2381867140200691   T   T   T
