Sr Co O 
 1.0000000000000000
    -3.6740904643214596    0.0000000000000000    0.0000000000000000
     0.0000000000000000    3.9461161602900505    3.9855468990678835
     0.0000000000000000   15.8458220572683928  -16.0034781509480091
 Sr  Co  O  
   8   8  20
Selective dynamics
Direct
 -0.0000000000000000 -0.0097680848485353  0.0050190988754583   T   T   T
 -0.0000000000000000  0.4783292939082889  0.8693691981508217   T   T   T
 -0.0000000000000000 -0.0282772515162663  0.7508625361609068   T   T   T
 -0.0000000000000000  0.5356365576361902  0.6250393999945075   T   T   T
 -0.0000000000000000  0.0164390701110165  0.4980648710474043   T   T   T
 -0.0000000000000000  0.5055241880001813  0.3705035258214934   T   T   T
 -0.0000000000000000  0.0004579746070572  0.2505531333526144   T   T   T
 -0.0000000000000000  0.4956480740477788  0.1286904394982458   T   T   T
  0.4999999999999999  0.4917568011013632 -0.0038679006765361   T   T   T
  0.4999999999999999 -0.0144275491201794  0.8768344283275669   T   T   T
  0.4999999999999999  0.4975391934574445  0.7512100907831013   T   T   T
  0.4999999999999999  0.0133489699406070  0.6232287711170084   T   T   T
  0.4999999999999999  0.5149241993969182  0.5014373318074657   T   T   T
  0.4999999999999999  0.0043770811553171  0.3739130831631496   T   T   T
  0.4999999999999999  0.5003528207205479  0.2500412893363775   T   T   T
  0.4999999999999999 -0.0046543909559781  0.1272623682449893   T   T   T
  0.4999999999999999  0.2613182784464717  0.0514692803020832   T   T   T
  0.4999999999999999  0.2430485553777386  0.9340094308626909   T   T   T
  0.4999999999999999  0.7374359376609294  0.9360336199108018   T   T   T
  0.4999999999999999  0.7439377727711308  0.8192426737803687   T   T   T
  0.4999999999999999  0.2086480657609191  0.8152178077356808   T   T   T
 -0.0000000000000000  0.4399910894310263  0.7419642224001125   T   T   T
  0.4999999999999999  0.7519541235089379  0.6887014644117986   T   T   T
 -0.0000000000000000  0.0673198286468422  0.6373454758478456   T   T   T
  0.4999999999999999  0.7590108538285292  0.5586788427957085   T   T   T
  0.4999999999999999  0.2979205405252472  0.5637550415730872   T   T   T
  0.4999999999999999  0.2756636930823866  0.4474606746856816   T   T   T
  0.4999999999999999  0.7392458566350132  0.4443831164311496   T   T   T
 -0.0000000000000000  0.0067654372374746  0.3816996046497054   T   T   T
  0.4999999999999999  0.7532598906324606  0.3136360971695196   T   T   T
  0.4999999999999999  0.2534319579925396  0.3146283226885619   T   T   T
 -0.0000000000000000  0.4995232659728086  0.2497262885935325   T   T   T
  0.4999999999999999  0.2493016924599756  0.1852281241227817   T   T   T
  0.4999999999999999  0.7461833453768132  0.1851402613560049   T   T   T
 -0.0000000000000000 -0.0039506136363374  0.1183087693214301   T   T   T
  0.4999999999999999  0.7227835111439993  0.0527092255116782   T   T   T
