Sr Co O 
 1.0000000000000000
     3.9099110175915825   -0.0233659557435865    3.9099110175915839
     0.0232632299391396   -7.6751746794148632    0.0232632299391396
     7.8367220117296039   -0.0000000000000000   -7.8367220117296021
 Sr  Co  O  
   8   8  21
Selective dynamics
Direct
  0.0000000000000000 -0.0000000000000000  0.0067916123795433   T   T   T
  0.5000000000000021 -0.0000000000000000  0.7473032093013030   T   T   T
  0.0000000000000010 -0.0000000000000000  0.4898212036339724   T   T   T
  0.5000000000000007 -0.0000000000000000  0.2593729291505036   T   T   T
 -0.0000000000000000  0.5000000000000002 -0.0097819240523134   T   T   T
  0.5000000000000019  0.5000000000000002  0.7510614953430387   T   T   T
  0.0000000000000005  0.5000000000000003  0.5028551708215161   T   T   T
  0.5000000000000012  0.5000000000000006  0.2523994169908483   T   T   T
  0.4737396786835875  0.7550462508755148 -0.0081687346035866   T   T   T
  0.0000498691809630  0.7442804317435672  0.7460136973274902   T   T   T
  0.5002859533044834  0.7511932373061826  0.5039876629765595   T   T   T
  0.0274003713822627  0.7450187151446994  0.2569388513565135   T   T   T
  0.5262603213164136  0.2449537491244861 -0.0081687346035868   T   T   T
 -0.0000498691809627  0.2557195682564328  0.7460136973274909   T   T   T
  0.4997140466955192  0.2488067626938177  0.5039876629765596   T   T   T
 -0.0274003713822619  0.2549812848553004  0.2569388513565135   T   T   T
  0.2480201116799983  0.7448292325452159  0.1203477916579020   T   T   T
  0.2202842207579468  0.7889867154318843  0.8641565417895988   T   T   T
  0.5000000000000010 -0.0000000000000000  0.0313319352344396   T   T   T
  0.7431390176742148  0.7639870691396732  0.8954520664882096   T   T   T
  0.7578576025459610  0.7712483546764998  0.6367858218374430   T   T   T
  0.2365874173090242  0.7779813775446861  0.6266922707168046   T   T   T
  0.2546535469647319  0.7359789622181419  0.3768673230977375   T   T   T
  0.5000000000000019 -0.0000000000000000  0.4906379405580308   T   T   T
  0.7523839146475131  0.7400895531110231  0.3533543237284091   T   T   T
  0.0000000000000002 -0.0000000000000000  0.2369330555824838   T   T   T
  0.2568609823257883  0.2360129308603277  0.8954520664882092   T   T   T
  0.5000000000000006  0.5000000000000007  0.0007549572718450   T   T   T
  0.7797157792420577  0.2110132845681163  0.8641565417895993   T   T   T
  0.7634125826909776  0.2220186224553142  0.6266922707168049   T   T   T
  0.0000000000000016  0.5000000000000003  0.7583484753222641   T   T   T
  0.2421423974540418  0.2287516453235008  0.6367858218374433   T   T   T
  0.2476160853524891  0.2599104468889776  0.3533543237284094   T   T   T
  0.5000000000000010  0.5000000000000003  0.5177953667724269   T   T   T
  0.7453464530352696  0.2640210377818594  0.3768673230977374   T   T   T
  0.7519798883200028  0.2551707674547848  0.1203477916579020   T   T   T
  0.0000000000000004  0.5000000000000001  0.2195200245261953   T   T   T
