Sr Co O 
 1.0000000000000000
     3.9969361362350773    3.9520297641031950    4.0309884677242360
    -3.9191206308616460    3.8507663843589115   -4.0062071208758967
    -7.7696546012901964   -0.0526246561774991    7.8926009308880198
 Sr  Co  O  
   8   8  20
Selective dynamics
Direct
  0.0204806854764309  0.0020650951084683  0.0057839675332892   T   T   T
  0.2513447576142486  0.7616447650478012  0.2349457713171340   T   T   T
  0.4747418644945240  0.5137154528670038  0.5029826274388652   T   T   T
  0.7521563823730539  0.2118796097833580  0.7494485605231271   T   T   T
  0.4795193145235692  0.4979349048915311 -0.0057839675332893   T   T   T
  0.7478436176269475  0.2881203902166408  0.2505514394768736   T   T   T
  0.0252581355054761 -0.0137154528670033  0.4970173725611349   T   T   T
  0.2486552423857522  0.7383552349521987  0.7650542286828653   T   T   T
  0.4956108490202594  0.0057177501428652  0.0031255497499734   T   T   T
  0.7402498306664685  0.7600037190024124  0.2209328293901434   T   T   T
  0.0250311948668090  0.4875339055964718  0.4990844402800287   T   T   T
  0.2557002735395631  0.2465386159584781  0.7516437470151038   T   T   T
  0.0043891509797413  0.4942822498571348 -0.0031255497499733   T   T   T
  0.2442997264604377  0.2534613840415212  0.2483562529848964   T   T   T
  0.4749688051331911  0.0124660944035289  0.5009155597199710   T   T   T
  0.7597501693335323  0.7399962809975877  0.7790671706098561   T   T   T
  0.4199047764573134  0.1376219334354699  0.8767170209403871   T   T   T
  0.3782476139713994  0.1618325265798518  0.1202129781068522   T   T   T
  0.2500000000000006  0.7500000000000000 -0.0000000000000004   T   T   T
  0.6308847019553504  0.9422050549802425  0.1350429085213796   T   T   T
  0.4954668073188340  0.5618332311128087  0.2639831612714358   T   T   T
  0.8263272958082868  0.5619095488418975  0.4395247476504783   T   T   T
  0.0892721930470386  0.3681643108545115  0.6297428732369595   T   T   T
  0.1217523860286007  0.3381674734201477  0.8797870218931468   T   T   T
  0.0045331926811651 -0.0618332311128083  0.7360168387285638   T   T   T
  0.8691152980446497  0.5577949450197566  0.8649570914786208   T   T   T
  0.8295887169725980  0.5908572060794713  0.1081029370407698   T   T   T
  0.0800952235426866  0.3623780665645314  0.1232829790596133   T   T   T
  0.1006411393664361  0.3336827049276297  0.3752813537078827   T   T   T
 -0.0089494053049670 -0.0502416063375655  0.2590720018992980   T   T   T
  0.4107278069529615  0.1318356891454887  0.3702571267630405   T   T   T
  0.3993588606335633  0.1663172950723704  0.6247186462921163   T   T   T
  0.2500000000000003  0.7499999999999997  0.4999999999999994   T   T   T
  0.6736727041917145  0.9380904511581020  0.5604752523495208   T   T   T
  0.6704112830274030  0.9091427939205265  0.8918970629592293   T   T   T
  0.5089494053049672  0.5502416063375657  0.7409279981007013   T   T   T
