Sr Co O 
 1.0000000000000000
    -4.0919015306080757    0.0631268567847458   -3.8451564634023430
    -4.0710945954478577    3.6639600718090657    7.6019854238466547
     4.1071058651066004    7.7391499530364207   -3.9873621699193129
 Sr  Co  O  
   8   8  21
Selective dynamics
Direct
 -0.0000000000000000  0.0000000000000000  0.0000000000000000   T   T   T
  0.6484537928746660  0.2716013800813313  0.8710983716890351   T   T   T
  0.2369312171947149  0.5005045607614578  0.7548034165130241   T   T   T
  0.8756903498679046  0.7403279534334081  0.6123061566030197   T   T   T
  0.4999999999999994  0.0000000000000005  0.4999999999999999   T   T   T
  0.1243096501320965  0.2596720465665929  0.3876938433969808   T   T   T
  0.7630687828052855  0.4994954392385429  0.2451965834869772   T   T   T
  0.3515462071253339  0.7283986199186695  0.1289016283109666   T   T   T
  0.5475571642248117  0.1489006717661612  0.2012985859738042   T   T   T
  0.2013150763631979  0.3683801302887614  0.0533755100279336   T   T   T
  0.7986849236368017  0.6316198697112387  0.9466244899720665   T   T   T
  0.4524428357751888  0.8510993282338398  0.7987014140261972   T   T   T
  0.0625658888053134  0.1441070035568190  0.6776524825338650   T   T   T
  0.6872258023336950  0.3841082858014647  0.5666537135350485   T   T   T
  0.3127741976663058  0.6158917141985362  0.4333462864649520   T   T   T
  0.9374341111946861  0.8558929964431812  0.3223475174661358   T   T   T
  0.8410023920042178  0.2101969677871454  0.1349814417386395   T   T   T
  0.3803862310739138  0.2113050554588969  0.0749677119152454   T   T   T
  0.5000000000000006  0.5000000000000006  0.0000000000000003   T   T   T
  0.1157113697812099  0.2295197143694550  0.8693648401779774   T   T   T
  0.0000000000000004  0.4999999999999999  0.0000000000000006   T   T   T
  0.1589976079957825  0.7898030322128551  0.8650185582613613   T   T   T
  0.7445549095959927  0.5352728262882379  0.7580046895905235   T   T   T
  0.6196137689260870  0.7886949445411038  0.9250322880847553   T   T   T
  0.7015846073853236 -0.0041316923490252  0.7649322819733846   T   T   T
  0.3500800363288772  0.7733323100221136  0.6151321045299667   T   T   T
  0.3788549639791425  0.2464967226384977  0.6327459653271561   T   T   T
 -0.0000000000000001 -0.0000000000000002  0.5000000000000001   T   T   T
  0.8680022416527303  0.2696171197816961  0.6373892411138304   T   T   T
  0.0000000000000011  0.4999999999999999  0.5000000000000006   T   T   T
  0.6499199636711235  0.2266676899778875  0.3848678954700345   T   T   T
  0.5000000000000004  0.5000000000000007  0.5000000000000008   T   T   T
  0.6211450360208585  0.7535032773615031  0.3672540346728452   T   T   T
  0.2554450904040071  0.4647271737117626  0.2419953104094777   T   T   T
  0.1319977583472707  0.7303828802183054  0.3626107588861714   T   T   T
  0.2984153926146750  0.0041316923490261  0.2350677180266150   T   T   T
  0.8842886302187913  0.7704802856305465  0.1306351598220237   T   T   T
