Sr Co O 
 1.0000000000000000
    -3.6910056288059825    0.0000000000000000    0.0000000000000000
     0.0000000000000000   -8.0073843056923781    0.0000000000000000
     0.0000000000000000    4.0036921528461891   15.8344463506061359
 Sr  Co  O  
   8   8  20
Selective dynamics
Direct
 -0.0000000000000000  0.0223434508239825 -0.0066105596564322   T   T   T
 -0.0000000000000000  0.1289123893082390  0.2521264694717931   T   T   T
 -0.0000000000000000  0.2507640621307040  0.5006910293401873   T   T   T
 -0.0000000000000000  0.3825115431893676  0.7515085378014347   T   T   T
  0.0000000000000000  0.4710459895195851 -0.0066105596564322   T   T   T
 -0.0000000000000000  0.6232140801635536  0.2521264694717931   T   T   T
 -0.0000000000000000  0.7499269672094825  0.5006910293401873   T   T   T
  0.0000000000000000  0.8689969946120660  0.7515085378014347   T   T   T
  0.5000000000000001  0.8172947043463034  0.1345894086926077   T   T   T
  0.5000000000000001  0.9389664268634440  0.3779328537268887   T   T   T
  0.5000000000000001  0.0624140464850121  0.6248280929700250   T   T   T
  0.5000000000000001  0.1849439908979732  0.8698879817959475   T   T   T
  0.5000000000000001  0.3114176503222144  0.1228353006444286   T   T   T
  0.5000000000000001  0.4375014191612225  0.3750028383224456   T   T   T
  0.5000000000000001  0.5622783730579016  0.6245567461158040   T   T   T
  0.5000000000000001  0.6867260354988155  0.8734520709976320   T   T   T
  0.5000000000000001  0.0218687032383433  0.1106758773677351   T   T   T
  0.5000000000000001  0.8743574005679472  0.2487148011358952   T   T   T
 -0.0000000000000000  0.9387526291363637  0.3775052582727281   T   T   T
  0.5000000000000001  0.2073551796310622  0.3737013745672165   T   T   T
  0.5000000000000001  0.0044071033991738  0.5088142067983482   T   T   T
  0.5000000000000001  0.2915202198696952  0.6237316668251647   T   T   T
  0.5000000000000001  0.1197315972629893  0.7394631945259793   T   T   T
 -0.0000000000000000  0.1836421560135257  0.8672843120270526   T   T   T
  0.5000000000000001  0.4527750232060799  0.8759097253687662   T   T   T
  0.5000000000000001  0.2489670824104693 -0.0020658351790614   T   T   T
 -0.0000000000000000  0.3150634776431351  0.1301269552862702   T   T   T
  0.5000000000000001  0.5888071741293911  0.1106758773677351   T   T   T
  0.5000000000000001  0.3787406145091136  0.2574812290182276   T   T   T
  0.5000000000000001  0.6663461949361537  0.3737013745672166   T   T   T
  0.5000000000000001  0.4951940356382181  0.4903880712764367   T   T   T
 -0.0000000000000000  0.5607485624948934  0.6214971249897872   T   T   T
  0.5000000000000001  0.8322114469554681  0.6237316668251647   T   T   T
  0.5000000000000001  0.6258212007364389  0.7516424014728788   T   T   T
 -0.0000000000000000  0.7087973666964922  0.9175947333929854   T   T   T
  0.5000000000000001  0.9231347021626853  0.8759097253687662   T   T   T
