Sr Co O 
 1.0000000000000000
    -3.7226412672374667    0.0000000000000000    0.0000000000000000
     0.0000000000000000   -7.9817075892402611    0.0000087301242212
     0.0000000000000000    3.9906524165986070   15.9063045382881700
 Sr  Co  O  
   8   8  21
Selective dynamics
Direct
 -0.0000000000000000  0.0112484906111686 -0.0092147505661974   T   T   T
 -0.0000000000000000  0.1405759568179682  0.2474282625873781   T   T   T
 -0.0000000000000000  0.2540840705136092  0.5027360058985068   T   T   T
 -0.0000000000000000  0.3587029583417779  0.7430060649890133   T   T   T
 -0.0000000000000000  0.4659003561544867 -0.0093061032510542   T   T   T
 -0.0000000000000000  0.5937518674939748  0.2475235465193534   T   T   T
 -0.0000000000000000  0.7349036793530719  0.5025970271167737   T   T   T
 -0.0000000000000000  0.8704617887864712  0.7428719421230202   T   T   T
  0.4999999999999998  0.8118217697908893  0.1368506893575006   T   T   T
  0.4999999999999998  0.9293965034860889  0.3721237394712573   T   T   T
  0.4999999999999998  0.0537866909188415  0.6211827926992850   T   T   T
  0.4999999999999998  0.1772598951595800  0.8684341120308960   T   T   T
  0.4999999999999998  0.3021199862341756  0.1175182503063809   T   T   T
  0.4999999999999998  0.4298477039793969  0.3732996020458714   T   T   T
  0.4999999999999998  0.5544202835178831  0.6224619009585516   T   T   T
  0.4999999999999998  0.6772157640575478  0.8678767509307095   T   T   T
  0.4999999999999998  1.0125078382577994  0.1086185822532392   T   T   T
  0.4999999999999998  0.8685250085610917  0.2520083939392462   T   T   T
  0.4999999999999998  0.1536069883326840  0.3665017242111768   T   T   T
  0.4999999999999998 -0.0141694680117088  0.4839501765229953   T   T   T
 -0.0000000000000000  0.0513233338254010  0.6165784753304708   T   T   T
  0.4999999999999998  0.3008383381639726  0.6210754416706699   T   T   T
  0.4999999999999998  0.1171731869991012  0.7487838394486838   T   T   T
 -0.0000000000000000  0.1785826808433327  0.8705008491347538   T   T   T
  0.4999999999999998  0.4509380842928820  0.8766632800880452   T   T   T
  0.4999999999999998  0.2404374894128214 -0.0054511976805759   T   T   T
 -0.0000000000000000  0.3039472080289017  0.1208981380969706   T   T   T
  0.4999999999999998  0.5829639055474093  0.1082370604014052   T   T   T
  0.4999999999999998  0.3649086754985941  0.2428753235150595   T   T   T
 -0.0000000000000000  0.4276492757660501  0.3688047668736879   T   T   T
  0.4999999999999998  0.6997432491440765  0.3670831334231708   T   T   T
  0.4999999999999998  0.4898397706218087  0.4940916485525615   T   T   T
 -0.0000000000000000  0.5551408573670791  0.6238629572664208   T   T   T
  0.4999999999999998  0.8063609472583784  0.6206947046868495   T   T   T
  0.4999999999999998  0.6193257342791367  0.7514485582779858   T   T   T
 -0.0000000000000000  0.6999799577308735  0.9134626039534679   T   T   T
  0.4999999999999998  0.9123793629452175  0.8769216271440862   T   T   T
