Sr Co O 
 1.0000000000000000
    -3.6696464068781469    0.0000000000000000    0.0000000000000000
     0.0000000000000000    4.0489149762479384    4.0235710396381705
     0.0000000000000000   16.1793056034547291  -16.0769063398220879
 Sr  Co  O  
   8   8  20
Selective dynamics
Direct
 -0.0000000000000000 -0.0562996995824343  0.0014312435606992   T   T   T
 -0.0000000000000000  0.5184414025283235  0.8756920349331198   T   T   T
 -0.0000000000000000  0.0405746323480213  0.7628047847393675   T   T   T
 -0.0000000000000000  0.4712997651412853  0.6152146163784779   T   T   T
 -0.0000000000000000  0.0061229240348691  0.4901918183271884   T   T   T
 -0.0000000000000000  0.5055550204154295  0.3741267614083938   T   T   T
 -0.0000000000000000  0.0083686438653795  0.2540601284007721   T   T   T
 -0.0000000000000000  0.5024975666247185  0.1324908692671430   T   T   T
  0.5000000000000002  0.5020612588878878  0.0006993772478036   T   T   T
  0.5000000000000002  0.0009424325682856  0.8757988847992316   T   T   T
  0.5000000000000002  0.5159681490975105  0.7559606903887256   T   T   T
  0.5000000000000002 -0.0164480676148463  0.6178243068127209   T   T   T
  0.5000000000000002  0.4990902342615572  0.4965167202940310   T   T   T
  0.5000000000000002  0.0041461504791827  0.3735225188428256   T   T   T
  0.5000000000000002  0.5065400315042842  0.2527908075552010   T   T   T
  0.5000000000000002 -0.0129848750360972  0.1295400921445501   T   T   T
 -0.0000000000000000  0.3889466443282091 -0.0060469073466540   T   T   T
  0.5000000000000002  0.7364429914127046  0.9347125816351187   T   T   T
 -0.0000000000000000  0.0497309557227260  0.8880879527332285   T   T   T
  0.5000000000000002  0.7909969861630601  0.8036209594482320   T   T   T
  0.5000000000000002  0.2788772662538617  0.8197301319506988   T   T   T
 -0.0000000000000000  0.4808796802280916  0.7259762138675444   T   T   T
 -0.0000000000000000  0.0046654483572525  0.6520132221637034   T   T   T
  0.5000000000000002  0.7198986942851702  0.5741188155159928   T   T   T
  0.5000000000000002  0.2343190056438164  0.5662465242789851   T   T   T
 -0.0000000000000000  0.4973867008578772  0.5013728644692980   T   T   T
  0.5000000000000002  0.2563878313585533  0.4359044158753941   T   T   T
  0.5000000000000002  0.7603858306103504  0.4408100203990999   T   T   T
 -0.0000000000000000  0.0044541066763129  0.3742226163889836   T   T   T
  0.5000000000000002  0.7533340017634229  0.3130823462743372   T   T   T
  0.5000000000000002  0.2521459471262865  0.3093121597722192   T   T   T
 -0.0000000000000000  0.5038026273583237  0.2471670897385748   T   T   T
  0.5000000000000002  0.2486497442577551  0.1784755402578888   T   T   T
  0.5000000000000002  0.7589184380555365  0.1869461083025936   T   T   T
 -0.0000000000000000  0.0539509850994183  0.1067013866549381   T   T   T
  0.5000000000000002  0.7299506787261416  0.0638802789454874   T   T   T
