Sr Co O 
 1.0000000000000000
     3.8531123538280667    0.0000000000000000    0.0000000000000000
     0.0000000000000000    3.8390009964697036    0.0000000000000000
     0.0000000000000000    0.0000000000000000   23.3381586891492496
 Sr  Co  O  
   6   6  12
Selective dynamics
Direct
  0.0000000000000000  0.0000000000000000  0.0042066931354763   T   T   T
  0.0000000000000000  0.0000000000000000  0.1538947933914078   T   T   T
  0.0000000000000000  0.0000000000000000  0.3297071428153877   T   T   T
  0.0000000000000000  0.0000000000000000  0.5034999878142069   T   T   T
  0.0000000000000000  0.0000000000000000  0.6609585233759924   T   T   T
  0.0000000000000000  0.0000000000000000  0.8456805895365243   T   T   T
  0.5000000000000003  0.4999999999999999  0.0884123273805274   T   T   T
  0.5000000000000003  0.4999999999999999  0.2371366588253943   T   T   T
  0.5000000000000003  0.4999999999999999  0.4070197758046914   T   T   T
  0.5000000000000003  0.4999999999999999  0.5811544036695138   T   T   T
  0.5000000000000003  0.4999999999999999  0.7551551841550963   T   T   T
  0.5000000000000003  0.4999999999999999  0.9209135385022534   T   T   T
  0.0000000000000000  0.4999999999999999  0.0851842592993057   T   T   T
  0.5000000000000003  0.0000000000000000  0.0856734843336674   T   T   T
  0.5000000000000003  0.4999999999999999  0.3188489482877390   T   T   T
  0.0000000000000000  0.4999999999999999  0.4022163279383406   T   T   T
  0.5000000000000003  0.4999999999999999  0.4848140654425541   T   T   T
  0.0000000000000000  0.4999999999999999  0.5826473971000423   T   T   T
  0.5000000000000003  0.0000000000000000  0.5809379151287726   T   T   T
  0.5000000000000003  0.4999999999999999  0.6782923201518766   T   T   T
  0.5000000000000003  0.0000000000000000  0.7580944892938878   T   T   T
  0.5000000000000003  0.4999999999999999  0.8345336538113814   T   T   T
  0.0000000000000000  0.4999999999999999  0.9329002351537177   T   T   T
  0.5000000000000003  0.0000000000000000  0.9347839668333929   T   T   T
