Sr Co O 
 1.0000000000000000
    -3.7367248121122407    0.0000000000000000    0.0000000000000000
     0.0000000000000000    3.9808289163624377    7.9247165758137426
     0.0000000000000000   11.9524399135045858   -7.9298303655372235
 Sr  Co  O  
   8   8  21
Selective dynamics
Direct
 -0.0000000000000000 -0.0117975279841840 -0.0002958252649326   T   T   T
 -0.0000000000000000  0.3874472566591446  0.8798575303343590   T   T   T
 -0.0000000000000000  0.7172612998823713  0.7490192351991263   T   T   T
 -0.0000000000000000  0.1387963593102735  0.6117302360547394   T   T   T
 -0.0000000000000000  0.4989695854007988  0.4981804462753091   T   T   T
 -0.0000000000000000  0.8795056243821707  0.3739830738266584   T   T   T
 -0.0000000000000000  0.2586268756030126  0.2583127936078463   T   T   T
 -0.0000000000000000  0.6262152689318730  0.1248623279828132   T   T   T
  0.5000000000000001  0.3230633726168565  0.0632042785066459   T   T   T
  0.5000000000000001  0.6870840150521261  0.9354805024786141   T   T   T
  0.5000000000000001  0.0706537341115445  0.8253554223388821   T   T   T
  0.5000000000000001  0.4283150142707393  0.6860656411679494   T   T   T
  0.5000000000000001  0.8113868917214065  0.5596821848780552   T   T   T
  0.5000000000000001  0.1899994840540175  0.4355102137168908   T   T   T
  0.5000000000000001  0.5627454134737457  0.3128383944838455   T   T   T
  0.5000000000000001  0.9280047861862862  0.1901650540035028   T   T   T
 -0.0000000000000000  0.2720197535145707  0.0695009323733263   T   T   T
  0.5000000000000001  0.1799109407287781  0.9401734032554849   T   T   T
  0.5000000000000001  0.5023106852603991  0.0042635490238302   T   T   T
 -0.0000000000000000  0.6932587879188555  0.9353130924758540   T   T   T
  0.5000000000000001  0.5411867420083450  0.8128098924282595   T   T   T
  0.5000000000000001  0.8789040859152911  0.8496227550058326   T   T   T
  0.5000000000000001  0.1990284348041725  0.7413382867793734   T   T   T
 -0.0000000000000000  0.4258546389401460  0.6907151357268817   T   T   T
  0.5000000000000001  0.3216099109401630  0.5616900133171869   T   T   T
  0.5000000000000001  0.6446141441965528  0.6265161847157786   T   T   T
 -0.0000000000000000  0.8532294919767511  0.6029436348511144   T   T   T
  0.5000000000000001  0.6989268931666286  0.4408185300963131   T   T   T
  0.5000000000000001 -0.0051812729466595  0.5074483833304458   T   T   T
 -0.0000000000000000  0.1822229661527594  0.4345599249616004   T   T   T
  0.5000000000000001  0.0616961523427394  0.3016154227200610   T   T   T
  0.5000000000000001  0.3807261861731084  0.3763580240912719   T   T   T
 -0.0000000000000000  0.5699446119839754  0.3108816440405027   T   T   T
  0.5000000000000001  0.4171955448067423  0.1851365439472616   T   T   T
  0.5000000000000001  0.7478123192659843  0.2428822740355875   T   T   T
 -0.0000000000000000  0.9757404697074623  0.1746742720973576   T   T   T
  0.5000000000000001  0.8377110429261774  0.0617866323195136   T   T   T
