Sr Co O 
 1.0000000000000000
    -3.7237951094407742    0.0000000000000000    0.0000000000000000
     0.0000000000000000    4.0342249928114757    7.9304111419410983
     0.0000000000000000   12.1633764792335874   -7.9610252506589987
 Sr  Co  O  
   8   8  20
Selective dynamics
Direct
 -0.0000000000000000 -0.0364040750504998  0.0088875029729053   T   T   T
 -0.0000000000000000  0.3884352537670711  0.8571775818558472   T   T   T
 -0.0000000000000000  0.7368974523987739  0.7467119411249405   T   T   T
 -0.0000000000000000  0.1452471835464132  0.6189385216885019   T   T   T
 -0.0000000000000000  0.4952835458707611  0.4979295780468270   T   T   T
 -0.0000000000000000  0.8860276066770071  0.3706558089067619   T   T   T
 -0.0000000000000000  0.2616227214449631  0.2682958315469787   T   T   T
 -0.0000000000000000  0.6431810027069509  0.1435927315929937   T   T   T
  0.5000000000000002  0.3185015170359070  0.0717319894928223   T   T   T
  0.5000000000000002  0.6609817010255139  0.9404061288555625   T   T   T
  0.5000000000000002  0.0601521873010150  0.7969035589749407   T   T   T
  0.5000000000000002  0.4416618441070815  0.6828708823918380   T   T   T
  0.5000000000000002  0.8165233393971632  0.5641515186978577   T   T   T
  0.5000000000000002  0.1920655770567375  0.4398230807759302   T   T   T
  0.5000000000000002  0.5734023356383171  0.3200135533770219   T   T   T
  0.5000000000000002  0.9447105377752099  0.1923328243911985   T   T   T
  0.5000000000000002  0.1233267878180619  0.0864228882958407   T   T   T
  0.5000000000000002  0.4322901762122504 -0.0214132181500252   T   T   T
 -0.0000000000000000  0.6952044652180865  0.9262110074937780   T   T   T
  0.5000000000000002  0.5790090785183156  0.8112263099577189   T   T   T
 -0.0000000000000000  0.0380833312676924  0.8443506027851547   T   T   T
  0.5000000000000002  0.9174243173536250  0.6874734706114171   T   T   T
  0.5000000000000002  0.2503327125141698  0.7560000298093675   T   T   T
 -0.0000000000000000  0.4448529589251445  0.6851117787006762   T   T   T
  0.5000000000000002  0.3153574612523093  0.5629181746315902   T   T   T
  0.5000000000000002  0.6407196182025121  0.6175550552083852   T   T   T
  0.5000000000000002  0.7133437592731662  0.4497476018806323   T   T   T
  0.5000000000000002 -0.0048510550210191  0.5160155827380677   T   T   T
 -0.0000000000000000  0.1842629119615185  0.4406728331483840   T   T   T
  0.5000000000000002  0.0767253418403003  0.3110051034220964   T   T   T
  0.5000000000000002  0.3872073600619244  0.3780333447426604   T   T   T
 -0.0000000000000000  0.5708646794631531  0.3161012170802066   T   T   T
  0.5000000000000002  0.4331061237953052  0.1805607186706018   T   T   T
  0.5000000000000002  0.7563516996110958  0.2549638424394552   T   T   T
 -0.0000000000000000  0.9472369451880422  0.1838119149483422   T   T   T
  0.5000000000000002  0.7833616504846436  0.0553087809908595   T   T   T
