Sr Co O 
 1.0000000000000000
    -3.9212379040275089    0.0556849609912878   -3.9351391121005412
    -3.8710385877415296    3.7057565135881276    7.7638831377532096
     3.9427005981337260    7.8586046996034744   -4.0670961378597079
 Sr  Co  O  
   8   8  21
Selective dynamics
Direct
 -0.0080014939452022  0.0039548634862143 -0.0183381129566634   T   T   T
  0.6404451804738961  0.2689710246373992  0.8741606745185964   T   T   T
  0.2499999999999991  0.4999999999999998  0.7499999999999987   T   T   T
  0.8595548195261009  0.7310289753626033  0.6258393254814024   T   T   T
  0.5080014939452019 -0.0039548634862129  0.5183381129566642   T   T   T
  0.1330284955062390  0.2612080621635468  0.3783809475330497   T   T   T
  0.7499999999999978  0.5000000000000008  0.2499999999999992   T   T   T
  0.3669715044937594  0.7387919378364529  0.1216190524669485   T   T   T
  0.5345227105666873  0.1496002480223326  0.2039754502648892   T   T   T
  0.1897079509168679  0.3822414065264470  0.0635815749358699   T   T   T
  0.8100593930088341  0.6332382819285644  0.9392335419374913   T   T   T
  0.4223280072669511  0.8653234220619823  0.7957667366668529   T   T   T
  0.0776719927330485  0.1346765779380185  0.7042332633331464   T   T   T
  0.6899406069911616  0.3667617180714373  0.5607664580625064   T   T   T
  0.3102920490831308  0.6177585934735537  0.4364184250641295   T   T   T
  0.9654772894333090  0.8503997519776691  0.2960245497351087   T   T   T
  0.8287422412691979  0.2102865372695423  0.1226719113797328   T   T   T
  0.3632966583391837  0.2339838814725543  0.1017218124113776   T   T   T
  0.5195459658621977  0.5151668942415534  0.0028888262523928   T   T   T
  0.1243383036615811  0.2685887050569749  0.8810952779556771   T   T   T
 -0.0021278622692558  0.5115153075502606  0.0198098197383560   T   T   T
  0.1085249172763382  0.7595858845129740  0.8828581150926575   T   T   T
  0.7499999999999982  0.5000000000000010  0.7499999999999990   T   T   T
  0.5933661138878912  0.7727646936538439  0.8868392488431869   T   T   T
  0.7499999999999981  0.0000000000000014  0.7499999999999993   T   T   T
  0.3756616963384171  0.7314112949430248  0.6189047220443207   T   T   T
  0.2499999999999998  0.0000000000000002  0.7499999999999999   T   T   T
  0.3914750827236606  0.2404141154870266  0.6171418849073415   T   T   T
  0.9066338861121046  0.2272353063461589  0.6131607511568117   T   T   T
 -0.0195459658621991  0.4848331057584468  0.4971111737476068   T   T   T
  0.6612170365661154  0.2081985568442802  0.3816911684859117   T   T   T
  0.5021278622692545  0.4884846924497395  0.4801901802616432   T   T   T
  0.6712577587307985  0.7897134627304593  0.3773280886202648   T   T   T
  0.2499999999999994  0.5000000000000001  0.2499999999999992   T   T   T
  0.1367033416608144  0.7660161185274452  0.3982781875886208   T   T   T
  0.2499999999999995  0.0000000000000004  0.2499999999999997   T   T   T
  0.8387829634338814  0.7918014431557217  0.1183088315140858   T   T   T
