Sr Co O 
 1.0000000000000000
    -4.2740705097813247   -0.0102206879657668   -3.7270726632877826
    -4.2991735697005762   -7.5735004871769309    3.7310281006227322
    -4.3398641438903702    7.6448486539079825    3.8236665927895723
 Sr  Co  O  
   8   8  20
Selective dynamics
Direct
  0.0225767342741961 -0.0033403654536768 -0.0138288423529763   T   T   T
  0.5115196914812189  0.2529534254928100  0.2504803428926609   T   T   T
 -0.0118879850728638  0.4941497945286718  0.4973342032244190   T   T   T
  0.4925733780505385  0.7388132976665817  0.7394229663215677   T   T   T
  0.5166964167016392  0.0030970497978276  0.5134265222363995   T   T   T
  0.0215053017953020  0.2464945587096586  0.7468157356484602   T   T   T
  0.4953670798884441  0.5013169231502944 -0.0062861724761398   T   T   T
 -0.0228421554540925  0.7477337706470427  0.2634095447854236   T   T   T
  0.4643008932631058  0.8844772056132094  0.1576378469939054   T   T   T
  0.0293400675729794  0.1304892351759415  0.3990092769071106   T   T   T
  0.5078246169471704  0.3713022811386803  0.6180104798075395   T   T   T
 -0.0062358601507294  0.5979062388125387  0.8458992425007934   T   T   T
 -0.0279476836081368  0.8811710097350257  0.6405435256124432   T   T   T
  0.5345622519647356  0.1543151026463680  0.8812647651431793   T   T   T
  0.0015403400226719  0.3887046524231521  0.1098671241619223   T   T   T
  0.4834275387075536  0.5981754500174878  0.3571513005020395   T   T   T
  0.7335569240208324 -0.0317215970959641  0.1906495466510815   T   T   T
  0.2206888188335053  0.0565730134240312  0.2219753329250382   T   T   T
  0.2566859829261671  0.2462785258199563  0.4993324256630159   T   T   T
  0.7607733916789798  0.2630823467974198  0.4569709145028001   T   T   T
  0.7534180998925030  0.4981316812762571  0.7424172308554027   T   T   T
  0.4397264603493731  0.5274690039182417  0.5155556951306002   T   T   T
  0.2685421233044085  0.4670480361088608  0.7727751963966704   T   T   T
  0.3445595871716868  0.7719449354191398  0.0035809342461707   T   T   T
  0.0229764715350648  0.7442864091100881  0.7650884249761255   T   T   T
  0.2202727582352672 -0.0240279625258064  0.7181593810964016   T   T   T
 -0.0215960592813082 -0.0161295640893293  0.4887180382701597   T   T   T
  0.7047227194910334 -0.0244856663824797  0.8058992980228956   T   T   T
  0.7645183308619264  0.2524714921729757  0.0076877901770577   T   T   T
  0.5725226873112217  0.2239700118588598  0.7165334815542345   T   T   T
  0.2547920509112989  0.2480433987242252 -0.0093904541892763   T   T   T
  0.2467928201600418  0.4928419434630496  0.2418540003781210   T   T   T
 -0.0692839696283627  0.5629848611307187  0.0217404742951879   T   T   T
  0.7714188470286931  0.4807327518382009  0.2660110049437386   T   T   T
  0.7949983221733566  0.7532324234812395  0.5224627774144851   T   T   T
  0.4475931534600818  0.7695141467047557  0.3018208332302646   T   T   T
