Sr Co O 
 1.0000000000000000
     3.8304544331087813    0.0000000000000000    0.0000000000000000
     0.0000000000000000    3.7791862318604950    0.0000000000000000
     0.0000000000000000    0.0000000000000000   25.0658801658548001
 Sr  Co  O  
   6   6  12
Selective dynamics
Direct
  0.0000000000000000  0.0000000000000000 -0.0100348937338777   T   T   T
  0.0000000000000000  0.0000000000000000  0.1802459708509140   T   T   T
  0.0000000000000000  0.0000000000000000  0.3244443238320260   T   T   T
  0.0000000000000000  0.0000000000000000  0.4998358996592883   T   T   T
  0.0000000000000000  0.0000000000000000  0.6780843052152256   T   T   T
  0.0000000000000000  0.0000000000000000  0.8294403748955088   T   T   T
  0.4999999999999997  0.5000000000000013  0.0861635261725068   T   T   T
  0.4999999999999997  0.5000000000000013  0.2479280498438333   T   T   T
  0.4999999999999997  0.5000000000000013  0.4237532159072391   T   T   T
  0.4999999999999997  0.5000000000000013  0.5754530448185518   T   T   T
  0.4999999999999997  0.5000000000000013  0.7561923808302081   T   T   T
  0.4999999999999997  0.5000000000000013  0.9122088952478481   T   T   T
  0.4999999999999997  0.0000000000000000  0.0609397841411792   T   T   T
  0.4999999999999997  0.5000000000000013  0.1600292109581795   T   T   T
  0.0000000000000000  0.5000000000000013  0.2531922944834621   T   T   T
  0.4999999999999997  0.0000000000000000  0.2536661937411769   T   T   T
  0.4999999999999997  0.5000000000000013  0.3541293998756088   T   T   T
  0.4999999999999997  0.5000000000000013  0.4995905687684534   T   T   T
  0.4999999999999997  0.5000000000000013  0.6445731666730964   T   T   T
  0.0000000000000000  0.5000000000000013  0.7474185131814548   T   T   T
  0.4999999999999997  0.0000000000000000  0.7461424774226103   T   T   T
  0.4999999999999997  0.5000000000000013  0.8356780909009830   T   T   T
  0.0000000000000000  0.5000000000000013  0.9318638847952105   T   T   T
  0.4999999999999997  0.0000000000000000  0.9257280253909613   T   T   T
