Sr Co O 
 1.0000000000000000
    -3.6935847212048407    0.0000000000000000    0.0000000000000000
     0.0000000000000000    3.9553858082204423    7.9099368444213018
     0.0000000000000000   11.9100694672546243   -7.9319449288193633
 Sr  Co  O  
   8   8  20
Selective dynamics
Direct
 -0.0000000000000000 -0.0049251111824668  0.0067217827110079   T   T   T
 -0.0000000000000000  0.3715208350023769  0.8658977508652098   T   T   T
 -0.0000000000000000  0.7396482650783561  0.7486272935709534   T   T   T
 -0.0000000000000000  0.1423464959638726  0.6213797806286883   T   T   T
 -0.0000000000000000  0.4926232471293008  0.4956241982661647   T   T   T
 -0.0000000000000000  0.8790424028044385  0.3699959839356061   T   T   T
 -0.0000000000000000  0.2499511360926036  0.2554411079779087   T   T   T
 -0.0000000000000000  0.6313569340585768  0.1356819835476303   T   T   T
  0.4999999999999999  0.3117173947503447  0.0564572090305882   T   T   T
  0.4999999999999999  0.6818493243503613  0.9376032961434281   T   T   T
  0.4999999999999999  0.0549897511425319  0.8135749585364305   T   T   T
  0.4999999999999999  0.4403692346028180  0.6855534874083322   T   T   T
  0.4999999999999999  0.8170597490108493  0.5665251420083079   T   T   T
  0.4999999999999999  0.1890887471849223  0.4372683197556831   T   T   T
  0.4999999999999999  0.5645437421946994  0.3137681157649281   T   T   T
  0.4999999999999999  0.9387354269447694  0.1890297227193194   T   T   T
  0.4999999999999999  0.1382315305367254  0.1134000351647494   T   T   T
  0.4999999999999999  0.1825451885468464  0.9348242314056427   T   T   T
  0.4999999999999999  0.4870405700118242 -0.0082842627598274   T   T   T
  0.4999999999999999  0.5733962761969278  0.8212381023876224   T   T   T
  0.4999999999999999  0.8771922113977552  0.8764256921764327   T   T   T
  0.4999999999999999  0.9330613555306808  0.6939261451674419   T   T   T
  0.4999999999999999  0.2284106101289128  0.7561191523539282   T   T   T
 -0.0000000000000000  0.4416227583270086  0.6936777990302999   T   T   T
  0.4999999999999999  0.3188823264751340  0.5629118290601060   T   T   T
  0.4999999999999999  0.6455882629059383  0.6249842948653506   T   T   T
  0.4999999999999999  0.7050561756970048  0.4523484516437264   T   T   T
  0.4999999999999999 -0.0076742554429756  0.5149575691456673   T   T   T
 -0.0000000000000000  0.1828340325186265  0.4401127843142997   T   T   T
  0.4999999999999999  0.0639971716460389  0.3125992080513924   T   T   T
  0.4999999999999999  0.3802554926841984  0.3721730993822247   T   T   T
 -0.0000000000000000  0.5643486998457112  0.3123306500832485   T   T   T
  0.4999999999999999  0.4289336505476324  0.1691070734502514   T   T   T
  0.4999999999999999  0.7482131965956641  0.2514797915828330   T   T   T
 -0.0000000000000000  0.9389991441553668  0.1801309186603091   T   T   T
  0.4999999999999999  0.7941480057299459  0.0513872617358761   T   T   T
