Sr Co O 
 1.0000000000000000
     3.8637101962917595   -0.0114280680237977    3.9218816484239154
     3.7999313245615700   -4.0082880007031623   -3.8468253824683849
     3.8502471904486226   12.1783586859921922   -3.9447252989618735
 Sr  Co  O  
   8   8  20
Selective dynamics
Direct
  0.0040773622876258  0.0366302492596898 -0.0041541749143100   T   T   T
  0.4915694904962710  0.6197194726767217  0.8575697383956334   T   T   T
  0.0026283837043545  0.2295152561386398  0.7356538187414222   T   T   T
  0.4988011121811660  0.8646317791597193  0.6173472628337261   T   T   T
  0.0036046835275732  0.4900446574771348  0.5089326183263051   T   T   T
  0.4942123791395493  0.1205889069606944  0.3913088681928749   T   T   T
  0.0000879705176873  0.7508101346941864  0.2690324498225120   T   T   T
  0.4959115109177566  0.4202058288117325  0.1359324292223282   T   T   T
  0.5717323414916891  0.9022235884308418  0.1125105067266188   T   T   T
 -0.0086391067176919  0.4971701705942166  0.0065886404654011   T   T   T
  0.4744608770926847  0.1158494199393352  0.8702488856675120   T   T   T
 -0.0053176374181927  0.7546536738949623  0.7447802083158697   T   T   T
  0.4995769739992253  0.3641643225379531  0.6293685875393437   T   T   T
 -0.0065484177933158 -0.0062916318519179  0.5009262028406153   T   T   T
  0.5006860249187531  0.6066198319186411  0.3869220685037535   T   T   T
 -0.0113496623263448  0.2599625855013663  0.2602723427239054   T   T   T
  0.4809431651993036  0.0614977878712920  0.0220262515485589   T   T   T
  0.7318515276470117  0.6668889200926368  0.0203950039083322   T   T   T
  0.2170145530375143  0.3509502174181994  0.9244461637907477   T   T   T
  0.2226010819490480  0.8970924572937801  0.8332226135656245   T   T   T
  0.5072716859466611  0.2329416651528460  0.7577125695104945   T   T   T
  0.7507347098348424  0.9509399168706866  0.8354561841589447   T   T   T
  0.7689521651185784  0.5552374084760980  0.7113997761085322   T   T   T
 -0.0057243841781642  0.8648797124909022  0.6256730717241493   T   T   T
  0.2571518243834302  0.5446555020778943  0.6879802234570815   T   T   T
  0.2435510969101893  0.1652950734685078  0.5608977434772648   T   T   T
  0.5168111710447395  0.4920204048963302  0.5056871375676562   T   T   T
  0.7405592279733049  0.1890690167359055  0.5708668294767214   T   T   T
  0.7459544951780509  0.8186104454956429  0.4373759979460979   T   T   T
 -0.0058144195974586  0.1288582751459823  0.3760454608894654   T   T   T
  0.2547398814590608  0.7848119839317733  0.4307217365553006   T   T   T
  0.2702269147808196  0.4018800755681248  0.3007282947173947   T   T   T
  0.4363125144764142  0.8036919051373558  0.2120409309068096   T   T   T
  0.7333277148315592  0.4561316786088152  0.3039917589734274   T   T   T
  0.8741887595217077  0.0238931834374643  0.1723868971507514   T   T   T
  0.0038518706275455  0.3966561886779735  0.1252049375830725   T   T   T
