Sr Co O 
 1.0000000000000000
     3.8399377063689908   -0.0004291470313972    3.8393877284222522
    -0.0027113280721834   -8.1975788370477822   -0.0004497878687273
     7.7713708882121031   -0.0078845565467870   -7.7666556500943518
 Sr  Co  O  
   8   8  20
Selective dynamics
Direct
 -0.0095638868961792  0.0363432425642049 -0.0000281335262024   T   T   T
  0.4954961255213214  0.0360089120569228  0.7571358299039556   T   T   T
 -0.0043252048298040  0.0361083638322471  0.4998006300142383   T   T   T
  0.4905806214344595  0.0361171755072671  0.2571130205127118   T   T   T
 -0.0095587294521933  0.4778985585603031 -0.0002395123553518   T   T   T
  0.4954228447872296  0.4776034006759148  0.7571358350936649   T   T   T
 -0.0041855094603237  0.4776373969080039  0.4998531634222978   T   T   T
  0.4907114877666376  0.4777372229055510  0.2571011747233765   T   T   T
  0.4538560599824803  0.7572542793540061  0.0367020681497882   T   T   T
  0.0320068517443731  0.7568569843618809  0.7202301833889895   T   T   T
  0.5324053950843145  0.7568100093128933  0.5366780723038057   T   T   T
 -0.0459323051243180  0.7570301311814965  0.2201598971233661   T   T   T
  0.4935931844402124  0.2567412694137721  0.0035248663519747   T   T   T
 -0.0076623985575725  0.2567359786809231  0.7535103741288955   T   T   T
  0.4925217577611584  0.2566955082547216  0.5035059560557678   T   T   T
 -0.0062966902883391  0.2570237281526557  0.2535043924211170   T   T   T
  0.0991627694728556  0.7570912150243320  0.0588734971200947   T   T   T
  0.5036864698279186  0.9685777701263503  0.9921041237452656   T   T   T
  0.8869963321112997  0.7569012001473557  0.5588648068493470   T   T   T
 -0.0184296182793090 -0.0321328479062863  0.7651901358607913   T   T   T
  0.3868029445407360  0.7567387612127014  0.6978776159124621   T   T   T
  0.4820556427675622 -0.0319879978090069  0.4919199114515049   T   T   T
  1.0044614855084384  0.5459331048236978  0.2651099160371944   T   T   T
  0.5994177964274600  0.7570100960071150  0.1978559962840803   T   T   T
  0.0044640659397820 -0.0318506648901277  0.2650118142475804   T   T   T
  0.2428198896963397  0.2569568001182068  0.8784302212791160   T   T   T
  0.5042138986084814  0.5463058569478798 -0.0082427864678889   T   T   T
  0.7427636497180895  0.2569041613187278  0.8785732759772723   T   T   T
  0.7438443371968012  0.2565874658081378  0.6276615590588392   T   T   T
 -0.0183098206491993  0.5457040413093781  0.7650130648595805   T   T   T
  0.2436843976497089  0.2568348745977280  0.6293663898441635   T   T   T
  0.2429953643298265  0.2569435773186987  0.3784709889768426   T   T   T
  0.4822991137815533  0.5457411783952428  0.4917694090315597   T   T   T
  0.7430153865884851  0.2568972548542248  0.3784531832048312   T   T   T
  0.7425023263424697  0.2571042530001604  0.1294368306027678   T   T   T
  0.2424833552258123  0.2571377998281832  0.1275724328253209   T   T   T
