Sr Co O 
 1.0000000000000000
     3.7289961428830201    0.0000000000000000    0.0000000000000000
     0.0000000000000000   -8.1164927019465125    7.8921447619756373
     0.0000000000000000   -4.0320301733322967  -11.8152397858682150
 Sr  Co  O  
   8   8  20
Selective dynamics
Direct
  0.0000000000000000 -0.0241724165868706  0.0031442385389103   T   T   T
  0.0000000000000000  0.1250000000000002  0.7499999999999991   T   T   T
  0.0000000000000000  0.2741724165868705  0.4968557614610886   T   T   T
  0.0000000000000000  0.3942979150625461  0.2642647991591753   T   T   T
  0.0000000000000000  0.5115179978423853  0.0039054954954121   T   T   T
  0.0000000000000000  0.6250000000000018  0.7499999999999998   T   T   T
 -0.0000000000000000  0.7384820021576158  0.4960945045045874   T   T   T
  0.0000000000000000  0.8557020849374553  0.2357352008408244   T   T   T
  0.4999999999999995  0.8689446644462965  0.7479900001401515   T   T   T
  0.4999999999999995 -0.0144109197106992  0.5004587373404958   T   T   T
  0.4999999999999995  0.1250000000000001  0.2499999999999997   T   T   T
  0.4999999999999995  0.2644109197106996 -0.0004587373404963   T   T   T
  0.4999999999999995  0.3810553355537045  0.7520099998598472   T   T   T
  0.4999999999999995  0.5072969501667042  0.5040407330663261   T   T   T
  0.4999999999999995  0.6250000000000001  0.2499999999999996   T   T   T
  0.4999999999999995  0.7427030498332968 -0.0040407330663267   T   T   T
  0.4999999999999995  0.8241524943560705  0.8816896751481844   T   T   T
 -0.0000000000000000  0.9122124756153739  0.7752418768010403   T   T   T
  0.4999999999999995  0.9650153227228658  0.6415186197665885   T   T   T
 -0.0000000000000000  0.0509721573017760  0.5012615715591480   T   T   T
  0.0000000000000000  0.1250000000000001  0.2499999999999997   T   T   T
  0.4999999999999995  0.2987641214741895  0.3590104734152795   T   T   T
  0.0000000000000000  0.1990278426982244 -0.0012615715591489   T   T   T
  0.4999999999999995  0.4216548698341657  0.1289990240512163   T   T   T
  0.4999999999999995  0.2849846772771368  0.8584813802334105   T   T   T
  0.0000000000000000  0.3377875243846295  0.7247581231989595   T   T   T
  0.4999999999999995  0.5536512690876655  0.8699372929879533   T   T   T
  0.4999999999999995  0.4258475056439313  0.6183103248518140   T   T   T
 -0.0000000000000000  0.5045830423667258  0.5011896439368123   T   T   T
  0.4999999999999995  0.6963487309123347  0.6300627070120445   T   T   T
  0.4999999999999995  0.5725178830594865  0.3804907840574993   T   T   T
  0.0000000000000000  0.6250000000000001  0.2499999999999996   T   T   T
  0.4999999999999995  0.8283451301658356  0.3710009759487833   T   T   T
  0.4999999999999995  0.6774821169405146  0.1195092159425005   T   T   T
  0.0000000000000000  0.7454169576332752 -0.0011896439368129   T   T   T
  0.4999999999999995  0.9512358785258104  0.1409895265847191   T   T   T
