Sr Co O 
 1.0000000000000000
    -3.7601340296023698    0.0000000000000000    0.0000000000000000
     0.0000000000000000   -7.6523088210614558    0.0000000000000000
     0.0000000000000000    3.8261544105307279   16.5364061869391961
 Sr  Co  O  
   8   8  21
Selective dynamics
Direct
 -0.0000000000000000  0.0096981897511143 -0.0128294339487127   T   T   T
  0.0000000000000000  0.1401346902954114  0.2663545440596798   T   T   T
  0.0000000000000000  0.2495087604865857  0.5050719380472328   T   T   T
  0.0000000000000000  0.3664924212410740  0.7439670328909248   T   T   T
  0.0000000000000000  0.4774723763001724 -0.0128294339487127   T   T   T
  0.0000000000000000  0.6262198537642680  0.2663545440596798   T   T   T
 -0.0000000000000000  0.7555631775606446  0.5050719380472328   T   T   T
 -0.0000000000000000  0.8774746116498475  0.7439670328909248   T   T   T
  0.5000000000000001  0.8141417869970720  0.1282835739941448   T   T   T
  0.5000000000000001  0.9409358079627839  0.3818716159255686   T   T   T
  0.5000000000000001  0.0623379814823463  0.6246759629646939   T   T   T
  0.5000000000000001  0.1839371463822663  0.8678742927645353   T   T   T
  0.5000000000000001  0.3117578083667996  0.1235156167335998   T   T   T
  0.5000000000000001  0.4444780054273266  0.3889560108546553   T   T   T
  0.5000000000000001  0.5628477643554638  0.6256955287109294   T   T   T
  0.5000000000000001  0.6821442725906431  0.8642885451812898   T   T   T
 -0.0000000000000000  0.7950508627516283  0.0901017255032575   T   T   T
  0.5000000000000001  0.8694550531702788  0.2389101063405586   T   T   T
 -0.0000000000000000  0.9367640640656978  0.3735281281313964   T   T   T
  0.5000000000000001  0.1945672024769710  0.3730123942514676   T   T   T
  0.5000000000000001 -0.0001400929606366  0.4997198140787280   T   T   T
 -0.0000000000000000  0.0628372286767497  0.6256744573535007   T   T   T
  0.5000000000000001  0.3133641907812431  0.6270362965233497   T   T   T
  0.5000000000000001  0.1259807318289101  0.7519614636578229   T   T   T
 -0.0000000000000000  0.1873535156476782  0.8747070312953592   T   T   T
  0.5000000000000001  0.4544250442050699  0.8864592226131611   T   T   T
  0.5000000000000001  0.2555840868876826  0.0111681737753657   T   T   T
 -0.0000000000000000  0.3103028418658314  0.1206056837316634   T   T   T
  0.5000000000000001  0.3658718366772870  0.2317436733545746   T   T   T
 -0.0000000000000000  0.4360876047726262  0.3721752095452543   T   T   T
  0.5000000000000001  0.6784451917744956  0.3730123942514676   T   T   T
  0.5000000000000001  0.5007680122682530  0.5015360245365079   T   T   T
 -0.0000000000000000  0.5640535913069256  0.6281071826138533   T   T   T
  0.5000000000000001  0.8136721057421038  0.6270362965233497   T   T   T
  0.5000000000000001  0.6270150982437518  0.7540301964875065   T   T   T
 -0.0000000000000000  0.6963630221612511  0.8927260443225057   T   T   T
  0.5000000000000001  0.9320341784080879  0.8864592226131611   T   T   T
