Sr Co O 
 1.0000000000000000
    -7.7794731881653165   -0.0111002821414095   -0.0050770143253711
    -0.0103371780169061   -8.1311021728153037    0.0046716893973874
     3.8946699707827901   -0.0011775559198041    7.7514575976778604
 Sr  Co  O  
   8   8  20
Selective dynamics
Direct
 -0.0280427268934754  0.0105585379367074 -0.0110242228236804   T   T   T
  0.2287614588785264  0.0127030827484077  0.5051481334510917   T   T   T
  0.4805260814563177  0.0205753778442324 -0.0120905975762894   T   T   T
  0.7458708118331964  0.0234228095608874  0.4986647564776343   T   T   T
 -0.0189165913958838  0.4653843693148762 -0.0039035817669901   T   T   T
  0.2243307718935596  0.4615421857965314  0.4995128725989242   T   T   T
  0.4812103411517661  0.4716629109440426 -0.0066826262089134   T   T   T
  0.7273542903968222  0.4622742308786376  0.4911716857151566   T   T   T
  0.9229583374528049  0.7535698570509285  0.2768066290001622   T   T   T
  0.0695154211860937  0.7380417259260915  0.7293763711342875   T   T   T
  0.3705286002789527  0.7225818063486379  0.2511709695891845   T   T   T
  0.6325012739052669  0.7401398345534218  0.7125292882126436   T   T   T
  0.8528000051604768  0.2353104388008050  0.2416309193383908   T   T   T
  0.1046359698712556  0.2436641684800878  0.7493614039017179   T   T   T
  0.3511903238242044  0.2551958870274136  0.2466481777865603   T   T   T
  0.6005023171463788  0.2413488393018377  0.7431764195957321   T   T   T
  0.1499279873940715  0.8169183784366361  0.2412209975485713   T   T   T
  0.0892075051902103  0.7357658079293979  0.5250755538592818   T   T   T
  0.1026937857178287 -0.0374618908858751  0.7487027449403899   T   T   T
  0.4243228297276704  0.7528291060322120  0.0762891494204609   T   T   T
  0.8245152108798885  0.9595857734260635  0.2408689649623324   T   T   T
  0.5847402613960152  0.7531370239978922  0.4707715078678025   T   T   T
  0.9107391865056786  0.7357095074333743  0.8390180340873409   T   T   T
  0.5856110882279822 -0.0502840293614802  0.7548244727181413   T   T   T
  0.7309602103996589  0.2442593541651508 -0.0058869726965795   T   T   T
  0.1017429762838434  0.2229593558196692  0.2486462644653565   T   T   T
  0.8511375239081737  0.5437461890817863  0.2233444877061331   T   T   T
 -0.0227451962950553  0.2479041725101497  0.4912472495082035   T   T   T
  0.3515671145783840  0.2424574077360906  0.7454305821541799   T   T   T
  0.1181264115193849  0.5165633935843218  0.7634904995034644   T   T   T
  0.2326304088836350  0.2238009308095613  0.0082467909845264   T   T   T
  0.6044913909824230  0.2455620607055154  0.2437355180218629   T   T   T
  0.3333414290099935  0.4950827947665248  0.2559156403569854   T   T   T
  0.4783285670123507  0.2191607362370198  0.4872993303131624   T   T   T
  0.8512570682760225  0.2459958107529644  0.7432183514072274   T   T   T
  0.5766776734470554  0.5283318047040333  0.7370442681156862   T   T   T
