Sr Co O 
 1.0000000000000000
     3.8968287396032428   -4.1246471219298089   -0.0411691802807418
    -3.7848605408278670    0.0298726361126004   -7.6131973318120867
     7.7936412388866358    8.2511459002253691   -0.1407288356211919
 Sr  Co  O  
   8   8  20
Selective dynamics
Direct
 -0.0268858241118418 -0.0318053899741497 -0.0023835066172922   T   T   T
  0.7707995223881310  0.4909811504548878  0.8497398459978014   T   T   T
  0.4962762714387080 -0.0304756862008283  0.7334530922650762   T   T   T
  0.2650516167216643  0.4915483234677597  0.5983550856746649   T   T   T
  0.0246182767114694  0.0068942363847070  0.5017408681402442   T   T   T
  0.7643583608833600  0.5125750490325084  0.3926134940934371   T   T   T
  0.5185886000639198  0.0218001510333816  0.2718952780597178   T   T   T
  0.2156981057384463  0.5249166962371994  0.1457268541481167   T   T   T
  0.8876242105500353  0.7832234945544451  0.2143532685607425   T   T   T
  0.5631802846763528  0.2074226953711556  0.0679316881664616   T   T   T
  0.3681846553249944  0.7303613095532400  0.9099890244327928   T   T   T
  0.2233872697612009  0.2575393948134534  0.8249175704037623   T   T   T
  0.8805166420903723  0.7449474353982430  0.6850151631169915   T   T   T
  0.6246898751402370  0.2473016711137594  0.5472849585578092   T   T   T
  0.3868965448472489  0.7557201256182764  0.4419260258269034   T   T   T
  0.1147538725846473  0.2617369837699061  0.3027648584887587   T   T   T
 -0.0285673076046313  0.0203181911796964  0.2314488817388415   T   T   T
 -0.0630562143565727  0.6866142658420317  0.0609139941642058   T   T   T
  0.5200283217966744  0.2376596368090953  0.9133141013722872   T   T   T
  0.5013030550957260 -0.0486615551795337  0.0335273445395251   T   T   T
  0.1190128469277881  0.7680544820498724  0.8178787697000672   T   T   T
  0.6179881150428362  0.7252501703005919  0.8080574787962447   T   T   T
  0.2390364556659197  0.4904762012029736  0.9082165631099188   T   T   T
  0.3636474450392816  0.2548538966272618  0.6748011163692331   T   T   T
 -0.0330830064702586  0.0604613016178286  0.7893282604393246   T   T   T
  0.6341421003748502  0.7377352634429546  0.5631626350458875   T   T   T
  0.1295959704806014  0.7647570364568789  0.5700078539262470   T   T   T
  0.8003092385919135  0.4748624347676597  0.6288713468075163   T   T   T
  0.3907583173535379  0.2529804319361149  0.4195987209118852   T   T   T
  0.8910917241692035  0.2459211883264055  0.4407501471586756   T   T   T
  0.5521480214741801  0.0141170399622411  0.5177976412094145   T   T   T
  0.1546721128748704  0.7841508912052260  0.3215970204920931   T   T   T
  0.6213838992238124  0.7391284844049624  0.2953228697066931   T   T   T
  0.2412407790050443  0.5055501722280217  0.3720430756701401   T   T   T
  0.8390242108709082  0.3054237944228732  0.1869940557084572   T   T   T
  0.3065855797299638  0.2556589643943757  0.1485445266446685   T   T   T
