Sr Co O 
 1.0000000000000000
    -0.0000000000000000    7.9569457092885907    0.0000000000000000
     7.6717867160836972   -3.9784728546442953    0.0308466099869993
    -3.8669087896046412   -0.0000000000000000   -7.8200607624544602
 Sr  Co  O  
   8   8  20
Selective dynamics
Direct
 -0.0216512951187389 -0.0140764034504257  0.0045984105577595   T   T   T
  0.8666126951698035  0.7521321837914100  0.5055365710103477   T   T   T
  0.7486196334077819  0.5120675809870722  0.0021653204289937   T   T   T
  0.6337649612560869  0.2556436140336183  0.4815731751989191   T   T   T
  0.5075748916683120 -0.0140764034504257  0.0045984105577595   T   T   T
  0.3855194886216057  0.7521321837914101  0.5055365710103477   T   T   T
  0.2634479475792900  0.5120675809870722  0.0021653204289937   T   T   T
  0.1218786527775312  0.2556436140336183  0.4815731751989191   T   T   T
  0.3126733130514111  0.1253466261028226  0.7216834017151751   T   T   T
  0.1964278242087105  0.8928556484174210  0.2480188542966242   T   T   T
  0.0604887127103655  0.6209774254207315  0.7492078019313568   T   T   T
  0.9353193984063226  0.3706387968126457  0.2437628999772822   T   T   T
  0.8063040772946406  0.1126081545892824  0.7589219259816237   T   T   T
  0.6890563289135270  0.8781126578270543  0.2546642299227121   T   T   T
  0.5581850600753588  0.6163701201507187  0.7526650612724776   T   T   T
  0.4466280128534548  0.3932560257069101  0.2657774641750553   T   T   T
  0.0851672743856726  0.1013511315118858  0.7755872649300265   T   T   T
  0.2258625135625097 -0.0482749728749806  0.4899689161537956   T   T   T
  0.9532157919099810  0.8694428383105562  0.2519442827895342   T   T   T
  0.1093955445665161  0.7187910891330320 -0.0145548881762487   T   T   T
  0.8269254112627885  0.6100499201052190  0.7475150145350838   T   T   T
  0.0164076451498122  0.5328152902996244  0.5133018953138687   T   T   T
  0.8101934053829708  0.1203868107659423  0.2456785873427425   T   T   T
  0.7179648204845789  0.3992750831425094  0.2448303321398336   T   T   T
  0.8945517008225534  0.2891034016451073 -0.0176624830882316   T   T   T
  0.6781370538491798  0.8562741076983605  0.7397491728738868   T   T   T
  0.5161838571262132  0.1013511315118858  0.7755872649300265   T   T   T
  0.7795494120184333  0.0590988240368674  0.5337163413957026   T   T   T
  0.5643562434296756  0.6287124868593520  0.2569639979366355   T   T   T
  0.4162270464005746  0.8694428383105562  0.2519442827895342   T   T   T
  0.6252001765816612  0.7504003531633225 -0.0037359189041212   T   T   T
  0.4429753207856585  0.3859506415713175  0.7841661760693245   T   T   T
  0.2831245088424296  0.6100499201052190  0.7475150145350838   T   T   T
  0.4852149133140325  0.4704298266280655  0.5089694816400183   T   T   T
  0.3146875360686908  0.1293750721373813  0.1912365825760439   T   T   T
  0.1813102626579308  0.3992750831425094  0.2448303321398336   T   T   T
