Sr Co O 
 1.0000000000000000
     3.7423841527551551    0.0000000000000000    0.0000000000000000
     0.0000000000000000   -8.0296807346722421    7.7886812819788238
     0.0000000000000000   -3.9652278258576885  -11.6337241931481810
 Sr  Co  O  
   8   8  20
Selective dynamics
Direct
  0.0000000000000000  0.0048074777411118 -0.0013447720194462   T   T   T
  0.0000000000000000  0.1361454912907538  0.7510368146757079   T   T   T
  0.0000000000000000  0.2517523867722766  0.5064043635810284   T   T   T
  0.0000000000000000  0.3893514783305695  0.2600070223578618   T   T   T
  0.0000000000000000  0.5091261155123858  0.0001847406030077   T   T   T
  0.0000000000000000  0.6079210725495724  0.7402080391795973   T   T   T
  0.0000000000000000  0.7362510670240399  0.4967801985692583   T   T   T
  0.0000000000000000  0.8667354526486939  0.2561383569254360   T   T   T
  0.5000000000000000  0.8849373192434185  0.7528893627049289   T   T   T
  0.5000000000000000 -0.0012727875890601  0.4974271777027464   T   T   T
  0.5000000000000000  0.1201414651449178  0.2427195122888811   T   T   T
  0.5000000000000000  0.2501173295016277  0.0020682672420648   T   T   T
  0.5000000000000000  0.3749881773532378  0.7520525126725457   T   T   T
  0.5000000000000000  0.4931639348006658  0.4983739971614859   T   T   T
  0.5000000000000000  0.6249849199246788  0.2520388537916619   T   T   T
  0.5000000000000000  0.7502020038010331  0.0027975879640621   T   T   T
  0.0000000000000000  0.8963360775033720  0.7511987443652017   T   T   T
  0.5000000000000000  0.0661312498425194  0.8792132223025134   T   T   T
  0.0000000000000000 -0.0153942928106728  0.5249791927034588   T   T   T
  0.5000000000000000  0.1696576295087878  0.6208153934062609   T   T   T
  0.5000000000000000  0.0556305171771281  0.3562793733344981   T   T   T
  0.5000000000000000  0.2890790944898933  0.3568729426739550   T   T   T
  0.5000000000000000  0.1842705174581517  0.1195334189497861   T   T   T
  0.5000000000000000  0.4201566298430273  0.1159739457351039   T   T   T
  0.5000000000000000  0.3055759357417229  0.8833623081486977   T   T   T
  0.0000000000000000  0.3722982274044785  0.7541244733843446   T   T   T
  0.5000000000000000  0.5740672381789532  0.8767086897954307   T   T   T
  0.5000000000000000  0.4290974991818148  0.6194159189330370   T   T   T
  0.0000000000000000  0.4950230928847058  0.4992841240442750   T   T   T
  0.5000000000000000  0.7114304957137664  0.6488746822519492   T   T   T
  0.5000000000000000  0.5610081801606639  0.3790775912543404   T   T   T
  0.0000000000000000  0.6224315950600896  0.2471516577753037   T   T   T
  0.5000000000000000  0.8194146907972104  0.3925424030763338   T   T   T
  0.5000000000000000  0.6968264938157743  0.1281234388621373   T   T   T
  0.0000000000000000  0.7723112378910516 -0.0328486376661273   T   T   T
  0.5000000000000000  0.9502952215659155  0.1195352888920068   T   T   T
