Sr Co O 
 1.0000000000000000
    -7.9043197369690716   -0.0039007649567586    0.0008938705470444
    -0.0039304876358135   -7.8888818582239937   -0.0188541190466472
     3.9509586165810280    0.0207223134314472    7.7635907938981461
 Sr  Co  O  
   8   8  20
Selective dynamics
Direct
 -0.0046267636800408  0.0105649183695716 -0.0280668821307701   T   T   T
  0.2732469194248940  0.0089299795378010  0.5203059905568173   T   T   T
  0.4901561321470730 -0.0009039881140990 -0.0061395729095594   T   T   T
  0.7507107747955581  0.0094672695436305  0.5110904246264643   T   T   T
 -0.0076889903198948  0.4912905267834611 -0.0135591885530117   T   T   T
  0.2727267629787826  0.5001579109916506  0.5281155297018961   T   T   T
  0.4893935203854101  0.4872897125763241 -0.0007930396981386   T   T   T
  0.7447457869267178  0.4950876902418810  0.5229500933433224   T   T   T
  0.8587830389853176  0.7294511673594881  0.2459801781022233   T   T   T
  0.1184535644743285  0.7490699399849017  0.7244911179718850   T   T   T
  0.4053300691021046  0.7533570346803442  0.2784441179227778   T   T   T
  0.6361229551524152  0.7539034217676223  0.7674201215572570   T   T   T
  0.8861388173015505  0.2684564138273582  0.2764830937184271   T   T   T
  0.1288068712049363  0.2483410852267426  0.7532007199826057   T   T   T
  0.3515836156499563  0.2406477172505560  0.2367066959299391   T   T   T
  0.6156953084804481  0.2515004392342247  0.7364810513459107   T   T   T
  0.8120226154366433  0.7887122460432997  0.0308601868264011   T   T   T
  0.0410432404501778  0.7666220402713102  0.4640193493400270   T   T   T
  0.4068544139539814  0.7417386059979099  0.7954992660282963   T   T   T
  0.1405803880646257 -0.0235830699297798  0.7684506409773932   T   T   T
  0.6316871712170266  0.7854619263046060  0.2540655709237161   T   T   T
  0.3225252830604106 -0.0311632951079893  0.2254986180287430   T   T   T
  0.4787254995283675  0.7410339969400453  0.5141523045500196   T   T   T
  0.8650594930027264  0.7510358166208126  0.7359698326824766   T   T   T
  0.6302734772959133  0.0209773438475803  0.7650003525061561   T   T   T
  0.0716142145690336  0.2236589741918409  0.2156857954234420   T   T   T
  0.8516978711044464  0.4936756883402445  0.2059237900487292   T   T   T
  0.0112973772736629  0.2226616456611998  0.5105843369490233   T   T   T
  0.3885085478909122  0.2528172918552540  0.7672356488954467   T   T   T
  0.1206241194369226  0.5180428229234119  0.7457228847093110   T   T   T
  0.2470500893970632  0.2524606573549598 -0.0023792633596953   T   T   T
  0.6441240603414969  0.2196948827502791  0.2333525832880067   T   T   T
  0.3348728227401833  0.5365370044792428  0.2148398574271057   T   T   T
  0.4815984350374689  0.2589446164883900  0.4753671788710986   T   T   T
  0.8711832420312685  0.2520291850634285  0.7502592421772392   T   T   T
  0.6390791196945099  0.4820301923394791  0.7767812957994016   T   T   T
