Sr Co O 
 1.0000000000000000
     3.8692444261716683   -0.0804819017874620    3.8886703699377088
     3.7911007240835977   -4.1542438864046174   -3.7248339271806041
     3.6813282500635243   12.5993739809785019   -3.9633844022452509
 Sr  Co  O  
   8   8  20
Selective dynamics
Direct
  0.0000000000000000  0.0000000000000000  0.0000000000000000   T   T   T
  0.5028008635408188  0.6015825324619176  0.8683309131390839   T   T   T
  0.0116923873951591  0.2535408265806326  0.7353897725745183   T   T   T
  0.5136828686987563  0.8824471376845640  0.6104286908793668   T   T   T
 -0.0000000000000004  0.4999999999999993  0.5000000000000006   T   T   T
  0.4863171313012439  0.1175528623154379  0.3895713091206349   T   T   T
 -0.0116923873951604  0.7464591734193683  0.2646102274254822   T   T   T
  0.4971991364591793  0.3984174675380828  0.1316690868609168   T   T   T
  0.5631845811768815  0.8793272962682910  0.1140701143863189   T   T   T
  0.0000000000000003  0.4999999999999995 -0.0000000000000000   T   T   T
  0.4368154188231165  0.1206727037317085  0.8859298856136815   T   T   T
  0.0161693584642512  0.7488912986988161  0.7342090931540272   T   T   T
  0.5039821350245334  0.3905765255368746  0.6189568815185567   T   T   T
 -0.0000000000000006  0.0000000000000003  0.5000000000000003   T   T   T
  0.4960178649754665  0.6094234744631271  0.3810431184814445   T   T   T
 -0.0161693584642510  0.2511087013011841  0.2657909068459735   T   T   T
  0.4999999999999999  0.0000000000000004  0.0000000000000002   T   T   T
  0.7071235240316366  0.6292737958216700  0.0412413395056540   T   T   T
  0.0019781722143312  0.6201476384853356  0.8960175759069305   T   T   T
  0.2928764759683638  0.3707262041783306  0.9587586604943474   T   T   T
  0.1475228745622620  0.9735320171579960  0.8276457417030152   T   T   T
  0.5834614297988587  0.1918510248265110  0.7860415644333301   T   T   T
  0.7304064878444358  0.6109938941752838  0.7062899787044754   T   T   T
  0.0150908878113310  0.8685800499693379  0.6216697696697193   T   T   T
  0.2595350072317322  0.5381198159099162  0.6984865922569500   T   T   T
  0.2614017354669645  0.1722112309734725  0.5608565570021402   T   T   T
  0.4999999999999987  0.4999999999999997  0.5000000000000002   T   T   T
  0.7564809853611233  0.2124851900369358  0.5766521810591438   T   T   T
  0.7385982645330346  0.8277887690265282  0.4391434429978611   T   T   T
 -0.0150908878113298  0.1314199500306624  0.3783302303302812   T   T   T
  0.2435190146388767  0.7875148099630661  0.4233478189408577   T   T   T
  0.2695935121555633  0.3890061058247175  0.2937100212955253   T   T   T
  0.4165385702011404  0.8081489751734879  0.2139584355666720   T   T   T
  0.7404649927682667  0.4618801840900844  0.3015134077430508   T   T   T
  0.8524771254377381  0.0264679828420057  0.1723542582969857   T   T   T
 -0.0019781722143315  0.3798523615146643  0.1039824240930690   T   T   T
