Sr Co O 
 1.0000000000000000
    -3.6997840596819525    0.0000000000000000    0.0000000000000000
     0.0000000000000000    3.9490134780752499    4.0604430343260871
     0.0000000000000000   15.7969716860053175  -16.2521512763677798
 Sr  Co  O  
   8   8  20
Selective dynamics
Direct
 -0.0000000000000000 -0.0714516669168151  0.0018197635797980   T   T   T
 -0.0000000000000000  0.4238686891693472  0.8844552382143880   T   T   T
 -0.0000000000000000  0.0518342424450151  0.7548966938555376   T   T   T
 -0.0000000000000000  0.5503369571901681  0.6156324351758365   T   T   T
 -0.0000000000000000  0.0324274406558171  0.4935308613744532   T   T   T
 -0.0000000000000000  0.5198986019185521  0.3724675443927752   T   T   T
 -0.0000000000000000  0.0123558144405412  0.2537298385421548   T   T   T
 -0.0000000000000000  0.4969932234437635  0.1301746916269710   T   T   T
  0.4999999999999998  0.4562650386515705  0.0025405832499673   T   T   T
  0.4999999999999998 -0.0664696714925513  0.8835419396681625   T   T   T
  0.4999999999999998  0.5313051624515222  0.7424529830912869   T   T   T
  0.4999999999999998  0.0014145091248702  0.6277432129887364   T   T   T
  0.4999999999999998  0.5432854895175637  0.4942621016225657   T   T   T
  0.4999999999999998  0.0215661266107684  0.3733563880199172   T   T   T
  0.4999999999999998  0.5083115318014898  0.2517046835686810   T   T   T
  0.4999999999999998 -0.0247557266974651  0.1293353220876560   T   T   T
 -0.0000000000000000  0.4068208634864705  0.0135382461111699   T   T   T
  0.4999999999999998  0.1776548502581378  0.9423233742025354   T   T   T
  0.4999999999999998  0.6695553335036192  0.9341663708285497   T   T   T
 -0.0000000000000000 -0.0872762496641947  0.8553536446906110   T   T   T
  0.4999999999999998  0.3160741841565198  0.8021000792913798   T   T   T
 -0.0000000000000000  0.4878745221505646  0.7269443013624276   T   T   T
  0.4999999999999998  0.8291228567502180  0.6971718900579570   T   T   T
  0.4999999999999998  0.7920007764689582  0.5629358197636454   T   T   T
  0.4999999999999998  0.2799537063298320  0.5953554609568971   T   T   T
 -0.0000000000000000  0.5136992928587297  0.5050783418116522   T   T   T
  0.4999999999999998  0.2732009095232742  0.4434303987059902   T   T   T
  0.4999999999999998  0.7771922251864519  0.4374597041676064   T   T   T
 -0.0000000000000000  0.0259769810389228  0.3759185811078410   T   T   T
  0.4999999999999998  0.7659132642669053  0.3122499904185589   T   T   T
  0.4999999999999998  0.2648135925222983  0.3115149255800416   T   T   T
 -0.0000000000000000  0.5036141270027338  0.2475121932201003   T   T   T
  0.4999999999999998  0.2482268464091781  0.1772498345086196   T   T   T
  0.4999999999999998  0.7566749568257128  0.1873251670083794   T   T   T
 -0.0000000000000000  0.0324911564562549  0.1098377946869482   T   T   T
  0.4999999999999998  0.7292294307661792  0.0633894630358069   T   T   T
