Sr Co O 
 1.0000000000000000
     3.9631686295917010   -0.0035248595162380    3.8826939254650776
     0.0025932620652696   -7.8323467326514580    0.0056426099577994
     7.9206692293987846   -0.0018554673842161   -7.7637863853053606
 Sr  Co  O  
   8   8  20
Selective dynamics
Direct
 -0.0247200786446397  0.0093698513639184 -0.0043218928503201   T   T   T
  0.4869424555495684  0.0109091305794263  0.7410257102049841   T   T   T
  0.0186247161165446  0.0036175680408405  0.4954974049958575   T   T   T
  0.5441350439621181 -0.0009899624671545  0.2624112442597586   T   T   T
 -0.0253586943705243  0.4759181498653523 -0.0027915501799276   T   T   T
  0.4869978257438208  0.4778046081667078  0.7407298965115733   T   T   T
  0.0186367055548860  0.4820384109293089  0.4925788297910229   T   T   T
  0.5443636974320297  0.4853276185572901  0.2615888483606376   T   T   T
  0.5287482333861012  0.7428181441821323  0.0151715652826413   T   T   T
 -0.0174010463675183  0.7430729126526651  0.7204952066865564   T   T   T
  0.5114459015656808  0.7431113578699320  0.4981748033781302   T   T   T
  0.0240391677267143  0.7432938610471467  0.2489261529339620   T   T   T
  0.4938395550494974  0.2426525234181748 -0.0143488542297235   T   T   T
 -0.0060013516771234  0.2443607937855771  0.7495131080515264   T   T   T
  0.5177591270651606  0.2431761079727053  0.5015255194651149   T   T   T
  0.0360544662591725  0.2421488710723791  0.2604570721985757   T   T   T
  0.4637874006523747  0.9647677480205861  0.9849075429925300   T   T   T
  0.6754283619292958  0.7444888646264279  0.6629976022744719   T   T   T
  0.0060277925140596 -0.0391919234675368  0.7697921422894526   T   T   T
  0.2070129359454516  0.7389549732451928  0.5980455809516765   T   T   T
  0.3023466500774120  0.7415346300754712  0.3307182496762119   T   T   T
  0.5079113796866636 -0.0190517291354541  0.4984636337490315   T   T   T
  0.8016033241982098  0.7470555401722956  0.3791849861162210   T   T   T
  0.8195462202965501  0.7437147147074989  0.1113657701219448   T   T   T
  0.0672188434120305  0.0185963180110164  0.2194598637946682   T   T   T
  0.2233582951511982  0.2433467091791474  0.8953463296669651   T   T   T
  0.4616517748112229  0.5202902737357422 -0.0115794546602218   T   T   T
  0.7379140054107844  0.2432324515285326  0.8632413608841297   T   T   T
  0.7511196161035212  0.2423900747088227  0.6209131912905901   T   T   T
  0.0012590299528465  0.5267062065902246  0.7728748941939196   T   T   T
  0.2439750124731481  0.2460109462070652  0.6324315328600290   T   T   T
  0.2939518747005986  0.2445449618594325  0.3744232088899328   T   T   T
  0.5202716688464684  0.5054252595228742  0.4967284725281747   T   T   T
  0.7791306610647978  0.2394183361611927  0.3734353820227644   T   T   T
  0.6895427621783327  0.2415671867197101  0.1135670549772916   T   T   T
  0.0588366674138883  0.4675684241702237  0.2220495093001531   T   T   T
