Sr Co O 
 1.0000000000000000
     8.0321767923360099    0.0000000000000000   -0.0000000000000000
    -0.0000000000000000    7.6738588173253888    0.0000000000000000
     0.0000000000000000    0.0000000000000000    7.6738588173253888
 Sr  Co  O  
   8   8  20
Selective dynamics
Direct
 -0.0175805678271790 -0.0089925997510926 -0.0089925997510926   T   T   T
 -0.0175805678271790 -0.0089925997510926  0.5089925997510923   T   T   T
 -0.0175805678271790  0.5089925997510923 -0.0089925997510926   T   T   T
 -0.0175805678271790  0.5089925997510923  0.5089925997510923   T   T   T
  0.5175805678271790 -0.0089925997510926 -0.0089925997510926   T   T   T
  0.5175805678271790 -0.0089925997510926  0.5089925997510923   T   T   T
  0.5175805678271790  0.5089925997510923 -0.0089925997510926   T   T   T
  0.5175805678271790  0.5089925997510923  0.5089925997510923   T   T   T
  0.2499999999999999  0.2500000000000000  0.2500000000000000   T   T   T
  0.2499999999999999  0.2500000000000000  0.7499999999999998   T   T   T
  0.2499999999999999  0.7499999999999997  0.2500000000000000   T   T   T
  0.2499999999999999  0.7499999999999997  0.7499999999999998   T   T   T
  0.7499999999999999  0.2500000000000000  0.2500000000000000   T   T   T
  0.7499999999999999  0.2500000000000000  0.7499999999999998   T   T   T
  0.7499999999999999  0.7499999999999997  0.2500000000000000   T   T   T
  0.7499999999999999  0.7499999999999997  0.7499999999999998   T   T   T
  0.0335782651425455  0.2500000000000000  0.2500000000000000   T   T   T
  0.0212617505959692  0.2500000000000000  0.7499999999999998   T   T   T
  0.2499999999999999  0.0153584729559754  0.7499999999999998   T   T   T
  0.2499999999999999  0.7499999999999997  0.0153584729559754   T   T   T
  0.0212617505959692  0.7499999999999997  0.2500000000000000   T   T   T
  0.2499999999999999  0.7499999999999997  0.4846415270440245   T   T   T
  0.0145101798455211  0.7499999999999997  0.7499999999999998   T   T   T
  0.2499999999999999  0.4846415270440245  0.7499999999999998   T   T   T
  0.7499999999999999  0.2500000000000000 -0.0006190260622802   T   T   T
  0.4664217348574544  0.2500000000000000  0.2500000000000000   T   T   T
  0.7499999999999999 -0.0006190260622802  0.2500000000000000   T   T   T
  0.7499999999999999  0.2500000000000000  0.5006190260622799   T   T   T
  0.4787382494040305  0.2500000000000000  0.7499999999999998   T   T   T
  0.7499999999999999 -0.0013406112817250  0.7499999999999998   T   T   T
  0.7499999999999999  0.7499999999999997 -0.0013406112817250   T   T   T
  0.4787382494040305  0.7499999999999997  0.2500000000000000   T   T   T
  0.7499999999999999  0.5006190260622799  0.2500000000000000   T   T   T
  0.7499999999999999  0.7499999999999997  0.5013406112817246   T   T   T
  0.4854898201544787  0.7499999999999997  0.7499999999999998   T   T   T
  0.7499999999999999  0.5013406112817246  0.7499999999999998   T   T   T
