Sr Co O 
 1.0000000000000000
     3.7382898470057619    0.0000000000000000    0.0000000000000000
     0.0000000000000000   -8.0288334221399840    7.8449794643490698
     0.0000000000000000   -4.0062538562848831  -11.7573620839864290
 Sr  Co  O  
   8   8  20
Selective dynamics
Direct
  0.0000000000000000  0.0004904006754406  0.0090947604217771   T   T   T
  0.0000000000000000  0.1140302357420841  0.7360038734922101   T   T   T
  0.0000000000000000  0.2523450870259073  0.4961900105140118   T   T   T
  0.0000000000000000  0.3987259835659479  0.2663930592653209   T   T   T
  0.0000000000000000  0.5014372104623960  0.0089064457087131   T   T   T
  0.0000000000000000  0.5937184898704354  0.7449757606778886   T   T   T
  0.0000000000000000  0.7517885776625740  0.4891414601842355   T   T   T
  0.0000000000000000  0.8828408360487302  0.2549620172942997   T   T   T
  0.4999999999999998  0.8792677194283884  0.7484855392792379   T   T   T
  0.4999999999999998  0.0034009216588823  0.4998959468360846   T   T   T
  0.4999999999999998  0.1311805330262539  0.2556886486918921   T   T   T
  0.4999999999999998  0.2366756636191575 -0.0086704097347784   T   T   T
  0.4999999999999998  0.3699339201545012  0.7483795067708546   T   T   T
  0.4999999999999998  0.5054550785642942  0.5062552694523447   T   T   T
  0.4999999999999998  0.6357284845641167  0.2547587560469176   T   T   T
  0.4999999999999998  0.7456683391511822  0.0038158124883599   T   T   T
  0.4999999999999998  0.0411073811391010  0.8827344838152276   T   T   T
  0.4999999999999998  0.9300354373895341  0.6265807681851154   T   T   T
  0.0000000000000000  0.0067144220217460  0.5011558064336642   T   T   T
  0.4999999999999998  0.1903822009677085  0.6458687846450015   T   T   T
  0.4999999999999998  0.0752686828184681  0.3755063053925221   T   T   T
  0.0000000000000000  0.1504884913807482  0.2203571445176102   T   T   T
  0.4999999999999998  0.3134863438562548  0.3598360861135900   T   T   T
  0.0000000000000000  0.2317550047362404 -0.0255112159149773   T   T   T
  0.4999999999999998  0.4048534379349386  0.1067866201676463   T   T   T
  0.0000000000000000  0.3577621948679681  0.7817795331764580   T   T   T
  0.4999999999999998  0.5420474175449523  0.8749006348246519   T   T   T
  0.4999999999999998  0.4218473597472082  0.6195364168793785   T   T   T
  0.0000000000000000  0.5112609356217476  0.5097917874245842   T   T   T
  0.4999999999999998  0.7043281025844214  0.6781728344862538   T   T   T
  0.4999999999999998  0.5790444994399091  0.3860437717901485   T   T   T
  0.0000000000000000  0.6230462562621885  0.2443278228875349   T   T   T
  0.4999999999999998  0.8218339200101407  0.3705471389038349   T   T   T
  0.4999999999999998  0.6891496004589517  0.1208601966059017   T   T   T
  0.0000000000000000  0.7626246792884930 -0.0411302558207786   T   T   T
  0.4999999999999998  0.9527763313972135  0.1225789278099910   T   T   T
