Sr Co O 
 1.0000000000000000
     3.9076300768558920    0.0000000000000000    0.0000000000000000
     0.0000000000000000    3.8373344938492657    0.0000000000000000
     0.0000000000000000    0.0000000000000000   23.6784647058725817
 Sr  Co  O  
   6   6  12
Selective dynamics
Direct
  0.0000000000000000  0.0000000000000000 -0.0084630696033966   T   T   T
  0.0000000000000000  0.0000000000000000  0.1919321731461045   T   T   T
  0.0000000000000000  0.0000000000000000  0.3413553860014752   T   T   T
  0.0000000000000000  0.0000000000000000  0.4873063317284952   T   T   T
  0.0000000000000000  0.0000000000000000  0.6677298699454340   T   T   T
  0.0000000000000000  0.0000000000000000  0.8233164862796047   T   T   T
  0.4999999999999997  0.5000000000000000  0.0922321486543008   T   T   T
  0.4999999999999997  0.5000000000000000  0.2604084874390125   T   T   T
  0.4999999999999997  0.5000000000000000  0.4233669018854189   T   T   T
  0.4999999999999997  0.5000000000000000  0.5611747409756829   T   T   T
  0.4999999999999997  0.5000000000000000  0.7457959824557624   T   T   T
  0.4999999999999997  0.5000000000000000  0.9104124252379535   T   T   T
  0.4999999999999997  0.0000000000000000  0.0670608082238574   T   T   T
  0.4999999999999997  0.5000000000000000  0.1703051782503595   T   T   T
  0.0000000000000000  0.5000000000000000  0.2690962314742677   T   T   T
  0.4999999999999997  0.0000000000000000  0.2714754188870878   T   T   T
  0.0000000000000000  0.5000000000000000  0.4194894870846565   T   T   T
  0.4999999999999997  0.0000000000000000  0.4199533644441134   T   T   T
  0.4999999999999997  0.5000000000000000  0.6361813042585588   T   T   T
  0.0000000000000000  0.5000000000000000  0.7400696959143482   T   T   T
  0.4999999999999997  0.0000000000000000  0.7387665898124400   T   T   T
  0.4999999999999997  0.5000000000000000  0.8308287924030779   T   T   T
  0.0000000000000000  0.5000000000000000  0.9313553361940512   T   T   T
  0.4999999999999997  0.0000000000000000  0.9255166118598307   T   T   T
