Sr Co O 
 1.0000000000000000
     3.7511381895885005    0.0000000000000000    0.0000000000000000
     0.0000000000000000    3.8816160634937926    0.0000000000000000
     0.0000000000000000    0.0000000000000000   24.3005663441534665
 Sr  Co  O  
   6   6  13
Selective dynamics
Direct
  0.0000000000000000  0.0000000000000000 -0.0055877530751716   T   T   T
  0.0000000000000000  0.0000000000000000  0.1644053933153728   T   T   T
  0.0000000000000000  0.0000000000000000  0.3422194610438997   T   T   T
  0.0000000000000000  0.0000000000000000  0.4943485697462285   T   T   T
  0.0000000000000000  0.0000000000000000  0.6716222731915347   T   T   T
  0.0000000000000000  0.0000000000000000  0.8269193372498952   T   T   T
  0.5000000000000002  0.4999999999999992  0.0869047284585062   T   T   T
  0.5000000000000002  0.4999999999999992  0.2497793909185376   T   T   T
  0.5000000000000002  0.4999999999999992  0.4195887901842739   T   T   T
  0.5000000000000002  0.4999999999999992  0.5794012495130400   T   T   T
  0.5000000000000002  0.4999999999999992  0.7511814839546016   T   T   T
  0.5000000000000002  0.4999999999999992  0.9144027507354541   T   T   T
  0.5000000000000002  0.0000000000000000  0.0771803343238817   T   T   T
  0.5000000000000002  0.4999999999999992  0.1689401315616955   T   T   T
  0.0000000000000000  0.4999999999999992  0.2657243095077644   T   T   T
  0.0000000000000000  0.4999999999999992  0.4064965279686144   T   T   T
  0.5000000000000002  0.0000000000000000  0.4049254449560651   T   T   T
  0.5000000000000002  0.4999999999999992  0.5029976881487874   T   T   T
  0.5000000000000002  0.0000000000000000  0.5759766953137603   T   T   T
  0.5000000000000002  0.4999999999999992  0.6526329813426635   T   T   T
  0.0000000000000000  0.4999999999999992  0.7465354053089354   T   T   T
  0.5000000000000002  0.0000000000000000  0.7481281210498709   T   T   T
  0.5000000000000002  0.4999999999999992  0.8372927569789276   T   T   T
  0.0000000000000000  0.4999999999999992  0.9395760317270571   T   T   T
  0.5000000000000002  0.0000000000000000  0.9284079111287841   T   T   T
