Sr Co O 
 1.0000000000000000
     3.6749308225722599    0.0000000000000000    0.0000000000000000
     0.0000000000000000   -8.0362175241880180    8.0503970277717460
     0.0000000000000000   -3.9673310528691279  -12.0252953639570954
 Sr  Co  O  
   8   8  20
Selective dynamics
Direct
  0.0000000000000000  0.0063326994197553  0.0186654600740116   T   T   T
  0.0000000000000000  0.1242473545055875  0.7531528131842763   T   T   T
  0.0000000000000000  0.2588938762074226  0.4940564798168384   T   T   T
  0.0000000000000000  0.3921527848093229  0.2560293560299746   T   T   T
  0.0000000000000000  0.4902105639709783 -0.0015774620417792   T   T   T
  0.0000000000000000  0.5966907544648116  0.7408239106107720   T   T   T
  0.0000000000000000  0.7417722088274465  0.4864255400422449   T   T   T
  0.0000000000000000  0.8728140517599750  0.2542340622026386   T   T   T
  0.5000000000000002  0.8665022404068159  0.7322705051886738   T   T   T
  0.5000000000000002 -0.0013783581770553  0.4967581083656730   T   T   T
  0.5000000000000002  0.1275703461235320  0.2505246020000760   T   T   T
  0.5000000000000002  0.2573490706731846  0.0078314046013970   T   T   T
  0.5000000000000002  0.3735428111738540  0.7533090320409167   T   T   T
  0.5000000000000002  0.5011743476664449  0.5013061715248687   T   T   T
  0.5000000000000002  0.6275584231625430  0.2490720558251863   T   T   T
  0.5000000000000002  0.7384590991645128  0.0028910046159228   T   T   T
  0.0000000000000000  0.9133403164347438  0.7977860410203955   T   T   T
  0.5000000000000002  0.9566701476776447  0.6395368691657741   T   T   T
  0.0000000000000000  0.0450618679590461  0.5223266897812983   T   T   T
  0.5000000000000002  0.0762142427526129  0.3683281567299579   T   T   T
  0.5000000000000002  0.3015628112689878  0.3577101748807335   T   T   T
  0.5000000000000002  0.1751953435917961  0.1278804425563929   T   T   T
  0.0000000000000000  0.2150430798952799 -0.0171509247636663   T   T   T
  0.5000000000000002  0.4365584410620134  0.1224989002858647   T   T   T
  0.5000000000000002  0.2930357180062678  0.8622478276323434   T   T   T
  0.0000000000000000  0.3347331114155733  0.7244733678907055   T   T   T
  0.5000000000000002  0.5558095897488304  0.8721956661126570   T   T   T
  0.5000000000000002  0.4175905968959556  0.6193838641038835   T   T   T
  0.0000000000000000  0.4992686861374984  0.5007053855829403   T   T   T
  0.5000000000000002  0.6887362671298530  0.6502482414625138   T   T   T
  0.5000000000000002  0.5719051314761440  0.3817831426969582   T   T   T
  0.0000000000000000  0.6287916505415283  0.2480013281259330   T   T   T
  0.5000000000000002  0.8199858051972621  0.3779243818122270   T   T   T
  0.5000000000000002  0.6911606347036946  0.1221523363144153   T   T   T
  0.0000000000000000  0.7652514014756531 -0.0348951929345514   T   T   T
  0.5000000000000002  0.9526929465569529  0.1360902656016690   T   T   T
