Sr Co O 
 1.0000000000000000
    -0.0524373024518960    7.8666056401500146    0.0219277130976216
     8.1244561202866752   -0.0537339895565945    0.0175020513678336
    -4.0544155362605334   -3.9275696980931678   -7.7971227337074627
 Sr  Co  O  
   8   8  20
Selective dynamics
Direct
 -0.0004924073724254 -0.0249109217050486  0.0104585957554165   T   T   T
  0.7599064317133642  0.7308272500823302  0.5035768084098505   T   T   T
  0.5038665913174343  0.5147654194523450  0.0107265265078528   T   T   T
  0.2369988613698542  0.2546241734245607  0.4676617425714912   T   T   T
  0.5142756569333365  0.0031858990980864 -0.0013581909725329   T   T   T
  0.2666173022532198  0.7349552033076675  0.4898237931102882   T   T   T
  0.0104755877066624  0.5300429355931180  0.0211962026289471   T   T   T
  0.7481409636051831  0.2816041614888861  0.4869940380225528   T   T   T
  0.0847613897793266  0.1196345331338326  0.7096961212681463   T   T   T
  0.8837880065630394  0.8683669560576169  0.2540221706155561   T   T   T
  0.6229077198356080  0.6359403381798325  0.7551884362092802   T   T   T
  0.3867277634190462  0.3710357775215005  0.2568082469968745   T   T   T
  0.6654768713945449  0.1003691975138482  0.7493694401746634   T   T   T
  0.3791366452398857  0.9030035598049051  0.2652747974297279   T   T   T
  0.1453176756461399  0.5951138986843350  0.7587479415487572   T   T   T
  0.8680244002134199  0.3799719829927195  0.2273993918438558   T   T   T
  0.9132257544310979  0.0493890807315216  0.7736977678210227   T   T   T
 -0.0957666745814749  0.0111942837163474  0.4674732299257167   T   T   T
  0.8834366445223735  0.6299710652047140  0.2691011594906110   T   T   T
  0.7302486801454910  0.7588818171185382  0.0213915113036357   T   T   T
  0.3958641611638010  0.5534875603736071  0.7416364768867728   T   T   T
  0.5112801050348071  0.5026038611910137  0.5016693142325376   T   T   T
  0.3866203261019950  0.1155824632390177  0.2382855220535110   T   T   T
  0.1408318641391984  0.3759369897183236  0.2175541359751884   T   T   T
  0.7244386763900807  0.2961947984002505 -0.0418114512213920   T   T   T
  0.6073854898789340  0.8737792058701251  0.7535195285905434   T   T   T
  0.2753586300985002  0.0070175907388761  0.7413177159680360   T   T   T
  0.5261239954520095  0.0840469538635515  0.5384965113053255   T   T   T
  0.4294604669344252  0.6881369739134737  0.2687695292699122   T   T   T
  0.1334383523017058  0.8853699532385760  0.2662665869040993   T   T   T
  0.2625231499850242  0.7709065709230545 -0.0160419056643901   T   T   T
  0.1351861593337812  0.3753749834960163  0.7996337456455991   T   T   T
  0.8612503288065090  0.6092306410792848  0.7722509025653860   T   T   T
  0.0155736896287160  0.5221538529046832  0.5288190778761666   T   T   T
  0.8714660021260242  0.1523625122223633  0.2293722102427607   T   T   T
  0.5911245727377042  0.3648475743097388  0.2130123434019458   T   T   T
