Sr Co O 
 1.0000000000000000
    -3.7976968890589373    3.9853482034778946   -0.0000000000000000
     3.7976968890589373    3.9853482034778946   -0.0000000000000000
     0.0000000000000000   -3.9853482034778946  -15.9565091328319273
 Sr  Co  O  
   8   8  20
Selective dynamics
Direct
  0.0057991062416803  0.0057991062416803  0.0115982124833607   T   T   T
  0.8659319978452525  0.8659319978452543  0.7318639956905062   T   T   T
  0.7490384416468354  0.7490384416468368  0.4980768832936694   T   T   T
  0.6296319618349936  0.6296319618349947  0.2592639236699856   T   T   T
  0.5057991062416809  0.5057991062416819  0.0115982124833607   T   T   T
  0.3659319978452524  0.3659319978452532  0.7318639956905062   T   T   T
  0.2490384416468343  0.2490384416468347  0.4980768832936694   T   T   T
  0.1296319618349926  0.1296319618349928  0.2592639236699856   T   T   T
  0.9325186530518847  0.4325186530518856  0.8650373061037715   T   T   T
  0.8113403089998056  0.3113403089998064  0.6226806179996124   T   T   T
  0.6929899300249396  0.1929899300249393  0.3859798600498793   T   T   T
  0.5573225549003655  0.0573225549003652  0.1146451098007306   T   T   T
  0.4388144158344517  0.9388144158344527  0.8776288316689035   T   T   T
  0.3105195782632011  0.8105195782632022  0.6210391565264021   T   T   T
  0.1875627155400379  0.6875627155400379  0.3751254310800746   T   T   T
  0.0705728384608821  0.5705728384608821  0.1411456769217622   T   T   T
  0.7352482808825723  0.2352482808825732  0.8999362083996761   T   T   T
  0.8755220631400539  0.3755220631400546  0.7510441262801094   T   T   T
  0.0580068778798690  0.0663770786965305  0.6243839565764009   T   T   T
  0.5510836157318674  0.0510836157318682  0.6227023766803406   T   T   T
  0.7501790318717290  0.2501790318717288  0.5003580637434583   T   T   T
  0.9127539111433191  0.9466804483198886  0.3594343594632035   T   T   T
  0.4450244550809636  0.9450244550809648  0.3693668040006803   T   T   T
  0.8244691204030179  0.7799228849214598  0.1043920053244736   T   T   T
  0.3473036167080003  0.8473036167080013  0.1409710987232524   T   T   T
  0.4957392170648007 -0.0042607829351995 -0.0085215658703987   T   T   T
  0.1646879275171021  0.6646879275171031  0.8999362083996761   T   T   T
  0.3823725223726614  0.8823725223726623  0.7647450447453231   T   T   T
  0.5663770786965306  0.5580068778798706  0.6243839565764007   T   T   T
  0.0716187609484715  0.5716187609484726  0.6227023766803401   T   T   T
  0.2443205168896023  0.7443205168896022  0.4886410337792031   T   T   T
  0.4466804483198853  0.4127539111433185  0.3594343594632035   T   T   T
  0.9243423489197187  0.4243423489197196  0.3693668040006803   T   T   T
  0.1282358098405696  0.6282358098405698  0.2564716196811385   T   T   T
  0.2799228849214574  0.3244691204030175  0.1043920053244736   T   T   T
  0.7936674820152535  0.2936674820152543  0.1409710987232523   T   T   T
