Sr Co O 
 1.0000000000000000
     3.6690596187074132    0.0000000000000000    0.0000000000000000
     0.0000000000000000    7.9700761973129319   -0.0407409163111725
     0.0000000000000000   -0.0819999926559381   16.1488372873861401
 Sr  Co  O  
   8   8  20
Selective dynamics
Direct
  0.0000000000000000 -0.0028169781154587 -0.0040626667114454   T   T   T
  0.0000000000000000 -0.0106864526359066  0.2383098109633056   T   T   T
  0.0000000000000000 -0.0124813784577680  0.5150450451433709   T   T   T
  0.0000000000000000 -0.0121334139699126  0.7489516458432688   T   T   T
  0.0000000000000000  0.5064657175292866 -0.0028819517500751   T   T   T
  0.0000000000000000  0.5146706927609244  0.2492476712856656   T   T   T
  0.0000000000000000  0.5020636073642502  0.5139552877311597   T   T   T
  0.0000000000000000  0.5044627283520443  0.7472875545184158   T   T   T
  0.4999999999999997  0.2569457297632975  0.1154649902485534   T   T   T
  0.4999999999999997  0.2698021619772914  0.3822456986283374   T   T   T
  0.4999999999999997  0.2434729915877108  0.6293028201842028   T   T   T
  0.4999999999999997  0.2502844663674405  0.8751122408253295   T   T   T
  0.4999999999999997  0.7528644594831864  0.1229047142695245   T   T   T
  0.4999999999999997  0.7433567025687721  0.3798019944495679   T   T   T
  0.4999999999999997  0.7454574394185668  0.6292351212037058   T   T   T
  0.4999999999999997  0.7478198438546907  0.8744263935788066   T   T   T
  0.4999999999999997  0.2519232514009424 -0.0085025168652718   T   T   T
  0.0000000000000000  0.2570530905867003  0.1445308046395286   T   T   T
  0.4999999999999997 -0.0122074655628866  0.1238727680404026   T   T   T
  0.0000000000000000  0.2185533104549792  0.3424529712909539   T   T   T
  0.4999999999999997  0.2235534332320100  0.4914870857073524   T   T   T
  0.0000000000000000  0.2457785882452589  0.6275456327162433   T   T   T
  0.4999999999999997 -0.0027760617926327  0.6304774223091441   T   T   T
  0.4999999999999997  0.2499956220870829  0.7633379155416364   T   T   T
  0.4999999999999997  0.0207618029583466  0.8778577154734073   T   T   T
  0.4999999999999997  0.7503535411173448  0.0101131767153043   T   T   T
  0.4999999999999997  0.5216959233564344  0.1273218479207193   T   T   T
  0.4999999999999997  0.7631864282273725  0.2378071360860334   T   T   T
  0.0000000000000000  0.8082274838858868  0.3700587101342924   T   T   T
  0.4999999999999997  0.4989909287900190  0.3577772614308369   T   T   T
  0.4999999999999997  0.7469989034700377  0.4980372555946258   T   T   T
  0.0000000000000000  0.7439261515025639  0.6266392969943027   T   T   T
  0.4999999999999997  0.4911079272642283  0.6239558538953801   T   T   T
  0.4999999999999997  0.7437880334467328  0.7542574124501179   T   T   T
  0.0000000000000000  0.7499770645416559  0.8825919814713026   T   T   T
  0.4999999999999997  0.4795637924997922  0.8790338097983085   T   T   T
