Sr Co O 
 1.0000000000000000
     3.6681132081406247   -0.0000000000000000    0.0000000000000000
    -0.0000000000000000    3.8652135792536644    0.0000000000000000
     0.0000000000000000    0.0000000000000000   24.9200272675059580
 Sr  Co  O  
   6   6  12
Selective dynamics
Direct
 -0.0000000000000000 -0.0000000000000000 -0.0126235504224808   T   T   T
  0.0000000000000000  0.0000000000000000  0.1739428364869726   T   T   T
  0.0000000000000000 -0.0000000000000000  0.3260571635130270   T   T   T
  0.0000000000000000  0.0000000000000000  0.5126235504224801   T   T   T
  0.0000000000000000  0.0000000000000000  0.6646251602530256   T   T   T
 -0.0000000000000000 -0.0000000000000000  0.8353748397469740   T   T   T
  0.4999999999999997  0.4999999999999998  0.0905006809534379   T   T   T
  0.4999999999999997  0.4999999999999998  0.2499999999999999   T   T   T
  0.4999999999999997  0.4999999999999998  0.4094993190465611   T   T   T
  0.4999999999999997  0.4999999999999998  0.5930241034185000   T   T   T
  0.4999999999999997  0.4999999999999998  0.7500000000000000   T   T   T
  0.4999999999999997  0.4999999999999998  0.9069758965814995   T   T   T
  0.4999999999999997  0.4999999999999998  0.0207673184002652   T   T   T
  0.4999999999999997  0.4999999999999998  0.1636003286540997   T   T   T
  0.4999999999999997 -0.0000000000000000  0.2499999999999999   T   T   T
  0.4999999999999997  0.4999999999999998  0.3363996713458995   T   T   T
  0.4999999999999997  0.4999999999999998  0.4792326815997338   T   T   T
 -0.0000000000000000  0.4999999999999998  0.5816190751864529   T   T   T
  0.4999999999999997  0.0000000000000000  0.5844087672258179   T   T   T
  0.4999999999999997  0.4999999999999998  0.6754896638644806   T   T   T
  0.4999999999999997 -0.0000000000000000  0.7500000000000000   T   T   T
  0.4999999999999997  0.4999999999999998  0.8245103361355186   T   T   T
 -0.0000000000000000  0.4999999999999998  0.9183809248135461   T   T   T
  0.4999999999999997 -0.0000000000000000  0.9155912327741801   T   T   T
