Sr Co O 
 1.0000000000000000
     3.7575912725859451    0.0000000000000000    0.0000000000000000
     0.0000000000000000    3.7662763565926607    0.0000000000000000
     0.0000000000000000    0.0000000000000000   25.1994445556377755
 Sr  Co  O  
   6   6  12
Selective dynamics
Direct
  0.0000000000000000  0.0000000000000000 -0.0106906778972806   T   T   T
  0.0000000000000000  0.0000000000000000  0.1482827176028481   T   T   T
  0.0000000000000000  0.0000000000000000  0.3298047414642610   T   T   T
  0.0000000000000000  0.0000000000000000  0.5213026269170605   T   T   T
  0.0000000000000000  0.0000000000000000  0.6707233344797282   T   T   T
  0.0000000000000000  0.0000000000000000  0.8411430701102062   T   T   T
  0.4999999999999996  0.5000000000000006  0.0742345846644482   T   T   T
  0.4999999999999996  0.5000000000000006  0.2334898374862886   T   T   T
  0.4999999999999996  0.5000000000000006  0.4241798130268764   T   T   T
  0.4999999999999996  0.5000000000000006  0.5986327288883050   T   T   T
  0.4999999999999996  0.5000000000000006  0.7576460331547551   T   T   T
  0.4999999999999996  0.5000000000000006  0.9135677292254177   T   T   T
  0.0000000000000000  0.5000000000000006  0.0679053748266521   T   T   T
  0.4999999999999996  0.5000000000000006  0.1613264312603832   T   T   T
  0.4999999999999996  0.5000000000000006  0.3033778950910563   T   T   T
  0.0000000000000000  0.5000000000000006  0.3987314953564144   T   T   T
  0.4999999999999996  0.5000000000000006  0.4968188144460212   T   T   T
  0.0000000000000000  0.5000000000000006  0.5942167437961426   T   T   T
  0.4999999999999996  0.0000000000000000  0.5933005517752353   T   T   T
  0.4999999999999996  0.5000000000000006  0.6844315706278692   T   T   T
  0.4999999999999996  0.0000000000000000  0.7598254831178461   T   T   T
  0.4999999999999996  0.5000000000000006  0.8328786011906606   T   T   T
  0.0000000000000000  0.5000000000000006  0.9253118214105968   T   T   T
  0.4999999999999996  0.0000000000000000  0.9295585637240458   T   T   T
