Sr Co O 
 1.0000000000000000
     3.8843115845835423    0.0000000000000000    0.0000000000000000
     0.0000000000000000    3.8096220483865646    0.0000000000000000
     0.0000000000000000    0.0000000000000000   23.7174326052287299
 Sr  Co  O  
   6   6  12
Selective dynamics
Direct
  0.0000000000000000  0.0000000000000000 -0.0030500166812256   T   T   T
  0.0000000000000000  0.0000000000000000  0.1624494711821921   T   T   T
  0.0000000000000000  0.0000000000000000  0.3263897708451998   T   T   T
  0.0000000000000000  0.0000000000000000  0.5064026200710067   T   T   T
  0.0000000000000000  0.0000000000000000  0.6750470869578004   T   T   T
  0.0000000000000000  0.0000000000000000  0.8287906701473969   T   T   T
  0.4999999999999999  0.5000000000000006  0.0905845995210809   T   T   T
  0.4999999999999999  0.5000000000000006  0.2422656682289622   T   T   T
  0.4999999999999999  0.5000000000000006  0.4093688810684493   T   T   T
  0.4999999999999999  0.5000000000000006  0.5876764398172541   T   T   T
  0.4999999999999999  0.5000000000000006  0.7519545812314816   T   T   T
  0.4999999999999999  0.5000000000000006  0.9163191736605675   T   T   T
  0.4999999999999999  0.0000000000000000  0.0899032580975033   T   T   T
  0.0000000000000000  0.5000000000000006  0.2325698929001895   T   T   T
  0.4999999999999999  0.5000000000000006  0.3269101776465314   T   T   T
  0.4999999999999999  0.0000000000000000  0.4232771625758368   T   T   T
  0.0000000000000000  0.5000000000000006  0.5662964797306388   T   T   T
  0.4999999999999999  0.0000000000000000  0.5687963918319279   T   T   T
  0.4999999999999999  0.5000000000000006  0.6666847733551492   T   T   T
  0.0000000000000000  0.5000000000000006  0.7519609393185389   T   T   T
  0.4999999999999999  0.0000000000000000  0.7520839394623884   T   T   T
  0.4999999999999999  0.5000000000000006  0.8373589405999847   T   T   T
  0.0000000000000000  0.5000000000000006  0.9360436888467784   T   T   T
  0.4999999999999999  0.0000000000000000  0.9372487612870867   T   T   T
