Sr Co O 
 1.0000000000000000
     3.7063839373814003    0.0000000000000000    0.0000000000000000
     0.0000000000000000    7.9312748738332148    0.0105482882969587
     0.0000000000000000    0.0214854829304330   16.0621635666986080
 Sr  Co  O  
   8   8  20
Selective dynamics
Direct
  0.0000000000000000 -0.0105015780220628 -0.0128298243608018   T   T   T
  0.0000000000000000 -0.0157919154372673  0.2607504852247475   T   T   T
  0.0000000000000000 -0.0083088339230974  0.4950975140888275   T   T   T
  0.0000000000000000 -0.0040796172600434  0.7560587278400827   T   T   T
  0.0000000000000000  0.5034669503975182 -0.0082201526776900   T   T   T
  0.0000000000000000  0.5310106203095150  0.2504661768849548   T   T   T
  0.0000000000000000  0.5070296588319947  0.5023329913946047   T   T   T
  0.0000000000000000  0.4964659136685703  0.7550655623071205   T   T   T
  0.5000000000000002  0.2716477009512916  0.1354932439331086   T   T   T
  0.5000000000000002  0.2491089305312450  0.3737107230779140   T   T   T
  0.5000000000000002  0.2568151226271607  0.6258120511652432   T   T   T
  0.5000000000000002  0.2436990712962195  0.8698508063015373   T   T   T
  0.5000000000000002  0.7567141918403205  0.1229200955611574   T   T   T
  0.5000000000000002  0.7461504347437197  0.3775412675255170   T   T   T
  0.5000000000000002  0.7397207398895532  0.6256998844699894   T   T   T
  0.5000000000000002  0.7451993851481850  0.8724623317501121   T   T   T
  0.5000000000000002  0.2024814880686215  0.0319112660222711   T   T   T
  0.5000000000000002  0.2259950273761888  0.2469238796345234   T   T   T
  0.5000000000000002  0.0186701139248496  0.3751784712409776   T   T   T
  0.5000000000000002  0.2527556486051378  0.4873214808189369   T   T   T
  0.0000000000000000  0.1987196258086678  0.6175707257385636   T   T   T
  0.5000000000000002  0.2365302418300483  0.7452123941369028   T   T   T
  0.0000000000000000  0.2486789432991158  0.8833759489288990   T   T   T
  0.5000000000000002 -0.0026693222125241  0.8730767946030710   T   T   T
  0.5000000000000002  0.7469622229252296  0.0070100598901918   T   T   T
  0.0000000000000000  0.8323435497136241  0.1256952456072706   T   T   T
  0.5000000000000002  0.4998783978767769  0.1291711742504960   T   T   T
  0.5000000000000002  0.7618843699737488  0.2432924937973270   T   T   T
  0.0000000000000000  0.7451284525507773  0.3753990357766495   T   T   T
  0.5000000000000002  0.4763259733887733  0.3645499926070587   T   T   T
  0.5000000000000002  0.7582593429246637  0.5053750566021078   T   T   T
  0.0000000000000000  0.8057518031621573  0.6237944075899869   T   T   T
  0.5000000000000002  0.4977748418835722  0.6202009782755478   T   T   T
  0.5000000000000002  0.7528887125783486  0.7417686129246874   T   T   T
  0.0000000000000000  0.7422950669895587  0.8735768476942045   T   T   T
  0.5000000000000002  0.4909984249180496  0.8773831854968021   T   T   T
