Sr Co O 
 1.0000000000000000
     0.0171610441928620    7.8007255739404986   -0.0408027157668649
     7.8275638641763834   -3.8832712871924628    0.0152076258992840
    -3.9128963038075542    0.0321885770274216   -7.8582932992763919
 Sr  Co  O  
   8   8  20
Selective dynamics
Direct
  0.0047046521344428  0.0051797094622077 -0.0002907533485115   T   T   T
  0.8469144723414715  0.7197224168613967  0.5025765127785329   T   T   T
  0.7494645595532775  0.4954508895196020  0.0045710615060349   T   T   T
  0.6235283664583628  0.2501385376051597  0.4853174328310628   T   T   T
  0.5149995088565295 -0.0095999206364562  0.0027392208109511   T   T   T
  0.3633451595239643  0.7421593431015938  0.5042779686308532   T   T   T
  0.2760417973149142  0.5173404632612606  0.0191733687848799   T   T   T
  0.1352669967237457  0.2821973415292641  0.4924770395677127   T   T   T
  0.3360991302904589  0.1397678418874237  0.7723535361456942   T   T   T
  0.1977012519567803  0.8650552848493330  0.2293495315925654   T   T   T
  0.0587849941409032  0.6410513270044209  0.7492287607826851   T   T   T
  0.9422394018283828  0.3827661658662408  0.2496082544651883   T   T   T
  0.7932486024667741  0.1006373755746508  0.7387826910723480   T   T   T
  0.6872454398613286  0.8756333627062430  0.2513971414986529   T   T   T
  0.5546051233285678  0.6130289810620497  0.7510352926837016   T   T   T
  0.4387527699057449  0.3763168275333514  0.2544685324630017   T   T   T
  0.3671352088417332  0.2493716524351025  0.0104640024614778   T   T   T
  0.1580355417077993  0.8960953851216260  0.7200444485995026   T   T   T
  0.0495193121161862  0.6683378798399691  0.2758274000244066   T   T   T
  0.0943955434495837  0.7521292574547284 -0.0028627861080341   T   T   T
  0.7984921230416003  0.5735542108776087  0.7449552297139398   T   T   T
 -0.0122669410102308  0.4882437005214413  0.5059967019064624   T   T   T
  0.8279713204137760  0.0985103891257379  0.2342954841227511   T   T   T
  0.6850960496107821  0.3448843794977643  0.2326001519912860   T   T   T
  0.9166354526663326  0.2774840343533160 -0.0430996713771800   T   T   T
  0.7064380056187182  0.8766265468056237  0.7653577379064538   T   T   T
  0.5606128117701787  0.1186310663760161  0.7090802509140683   T   T   T
  0.8406823091780580  0.0324583128051285  0.5253903334515985   T   T   T
  0.6066429702417524  0.6502867316705506  0.2600157128778596   T   T   T
  0.4438448097229181  0.8873148779187835  0.2854375281766192   T   T   T
  0.6187341802768594  0.7283224942920877 -0.0063973428600561   T   T   T
  0.3691170567517605  0.3362709797652206  0.7324392472671146   T   T   T
  0.2920054347159281  0.6368170600070115  0.7620022028046678   T   T   T
  0.4983121362082261  0.5009529308632101  0.5036245842645862   T   T   T
  0.2764330221828195  0.1088026201177296  0.2744815637715433   T   T   T
  0.1917214909913629  0.4030594274211252  0.2532816444440353   T   T   T
