Sr Co O 
 1.0000000000000000
    -3.9410221630001221   -0.0015374743623825   -3.8976901749131350
    -0.0375731192484203   -7.7891661880963952    0.0343767726567288
    -7.7774930342743094    3.8226677458992664    7.6922125966882273
 Sr  Co  O  
   8   8  20
Selective dynamics
Direct
  0.0020636176679659 -0.0044634906759377 -0.0025037473071227   T   T   T
  0.5268074206557144  0.1420988719326080  0.2596975038138563   T   T   T
  0.0016493588674026  0.2656365191187407  0.5120823411413236   T   T   T
  0.4742291825229535  0.3773073102102237  0.7439400760474177   T   T   T
  0.0001302741654281  0.4872706028355006 -0.0016441029102127   T   T   T
  0.5084164980203985  0.6203209358383018  0.2528907190059387   T   T   T
 -0.0017370944443032  0.7466520384268076  0.5055791786817031   T   T   T
  0.4753624709273198  0.8706911699753737  0.7389906406076241   T   T   T
  0.5087701500314173  0.7480129764907101 -0.0010320692240444   T   T   T
 -0.0204159758686449  0.8551295950763346  0.2580239445252808   T   T   T
  0.5008459048559122  0.0064317574393817  0.4986905231992519   T   T   T
  0.0037799583476921  0.1235813493325675  0.7475203012125723   T   T   T
  0.4820835822566891  0.2459840937852554  0.0077460946682012   T   T   T
  0.0127218912632371  0.3848289807754079  0.2490100366524297   T   T   T
  0.5010113847912165  0.5029742126873497  0.4990988033698511   T   T   T
 -0.0068456464704417  0.6258763326278324  0.7466474786473707   T   T   T
  0.7661856435681966  0.8260000264406974  0.1241681687440915   T   T   T
  0.5337049098503425 -0.0318753112119218 -0.0256689237281270   T   T   T
  0.2629892538115406  0.9377813202991221  0.3269415251533335   T   T   T
  0.7820367665210645  0.9825337710836769  0.3826006305200783   T   T   T
  0.7229361272981609  0.0858375283457380  0.6647494565090145   T   T   T
  0.4878247834080626  0.2472306627835157  0.5071706810215416   T   T   T
  0.2202614522466961  0.0440055218768999  0.6114942828880938   T   T   T
  0.2343686651705821  0.1910069545935113  0.8758438939063860   T   T   T
 -0.0415699509516595  0.4020321963628001  0.7676924711518341   T   T   T
  0.7562057167823006  0.2906528327715956  0.1102616902163641   T   T   T
  0.5290271739818898  0.5097542583686013 -0.0016062086721318   T   T   T
  0.2329992390072661  0.2539427958441555  0.1363936899614518   T   T   T
  0.2664067029812129  0.4384108656042666  0.3766264734240772   T   T   T
  0.0618415523148495  0.6141308263097176  0.2177139127381739   T   T   T
  0.7785206906667476  0.4242928639274829  0.3661918828533195   T   T   T
  0.7282335047618753  0.5699845845002436  0.6268804555222398   T   T   T
  0.5207991874286806  0.7629030811900975  0.4854390099072017   T   T   T
  0.2447248550076872  0.5760804396488497  0.6289168798385997   T   T   T
  0.2340037318238538  0.6942395703034089  0.9063839574352747   T   T   T
 -0.0403728411309742  0.8702216875203480  0.7720682025412900   T   T   T
