Sr Co O 
 1.0000000000000000
     4.0004983271121448   -3.9382227110523291   -3.9478585730540501
    -3.9369244917644868   -3.8859193240630456    3.9590773638703971
    -7.8508641717667578    3.9868398730198651   -7.7946725916743391
 Sr  Co  O  
   8   8  20
Selective dynamics
Direct
  0.0197454666543653  0.0127824057522203 -0.0081072854778750   T   T   T
  0.6289097746186865  0.1166089729180317  0.7538946903497727   T   T   T
  0.2685501910473735  0.2715813575617584  0.5223781126058678   T   T   T
  0.8703603689909555  0.4004344742186013  0.2408239954725530   T   T   T
  0.4565873035346039  0.4730168716925704 -0.0175436329516116   T   T   T
  0.1295184535748433  0.6182659484438424  0.7497464369701056   T   T   T
  0.7392168329283325  0.7309510040391827  0.5168508802900050   T   T   T
  0.3986769319079158  0.8852916014927122  0.2473729440065567   T   T   T
  0.6201667572021012  0.6323135351556910  0.7550994218274514   T   T   T
  0.2605752097681922  0.7398740534034011  0.4984836817204704   T   T   T
  0.8274609024052129  0.8328881301097580  0.2095006036922401   T   T   T
  0.5064536325571537  0.0140818910582465 -0.0004179454466794   T   T   T
  0.1210879067316770  0.1133146727039739  0.7450565548857523   T   T   T
  0.7412111769328694  0.2482023421027393  0.5115991192168404   T   T   T
  0.3909717363801152  0.3943133484246408  0.2516382887048726   T   T   T
  0.0207680305246649  0.5042407906030171  0.0080722350960835   T   T   T
  0.5983680125169822  0.8230541019447766  0.8983922455881818   T   T   T
  0.8751308036821037  0.8446325815302361  0.7594196679428638   T   T   T
  0.4248636382633723  0.6834669263461040  0.6304111458915082   T   T   T
  0.1601179848258327  0.9115299017532973  0.5844597038069557   T   T   T
  0.5177726874586318 -0.0136972451489394  0.4841274313233302   T   T   T
  0.7188411845436520  1.0058752239990378  0.1513695109307745   T   T   T
  0.4351364736726320  0.1951126598210150  0.1196549127869778   T   T   T
  0.7483423748300929  0.3176842994557389 -0.0083583919987215   T   T   T
  0.3070285222471519  0.0473917983813283  0.8580918355253566   T   T   T
  0.0440706008571676  0.3091246526169334  0.8705832333773248   T   T   T
  0.4009734041974116  0.3857317409298883  0.7594639329801598   T   T   T
  0.9453668225237929  0.1656748311267716  0.6198366592359311   T   T   T
  0.6955482494033247  0.4291993254257538  0.6423634267233549   T   T   T
 -0.0452456738475806  0.4401398135774334  0.4720359907441440   T   T   T
  0.4909171114812062  0.2830362905339789  0.3687854715637366   T   T   T
  0.2755276495773376  0.5628229865399760  0.3674263166627112   T   T   T
  0.6703281349672717  0.6704257201209647  0.2894987383688035   T   T   T
  0.1863313024771965  0.4137298776655679  0.1313138761306455   T   T   T
  1.0058595946603310  0.7373945102854926  0.1502342183447246   T   T   T
  0.2319606300862465  0.7370088402613584 -0.0085580198794523   T   T   T
