Sr Co O 
 1.0000000000000000
    -3.9296804259061004   -0.0000000000000000   -3.9424911463198815
    -3.9144298061182159   -7.7973346803335328    3.9280491306418281
    -3.9144298061182159    7.7973346803335328    3.9280491306418286
 Sr  Co  O  
   8   8  20
Selective dynamics
Direct
  0.0080338048946127 -0.0068291677128956 -0.0248417255656352   T   T   T
  0.5299606738492372  0.2523261999040692  0.2425658669640073   T   T   T
  0.0085536326198532  0.5174362976012371  0.5049431170924629   T   T   T
  0.5077143158200744  0.7616325859478847  0.7333747528755978   T   T   T
  0.5299606738492365 -0.0074341330359943  0.5023261999040710   T   T   T
  0.0085536326198529  0.2549431170924588  0.7674362976012425   T   T   T
  0.5077143158200769  0.4833747528755941  0.0116325859478871   T   T   T
  0.0080338048946100  0.7251582744343648  0.2431708322871056   T   T   T
  0.4795090531056530  0.8767528162683564  0.1267528162683582   T   T   T
  0.0090364989606462  0.1051385877892428  0.3551385877892441   T   T   T
  0.5144866328680083  0.4117651695281340  0.6617651695281385   T   T   T
  0.0202138194577055  0.6226611069707072  0.8726611069707123   T   T   T
  0.0168084401023700  0.8699504052830657  0.6250282111283727   T   T   T
  0.5145822045105837  0.1204553382372109  0.8706556201066171   T   T   T
  0.0168084401023737  0.3750282111283695  0.1199504052830675   T   T   T
  0.5145822045105848  0.6206556201066138  0.3704553382372133   T   T   T
  0.8009033288300508 -0.0154720546153041  0.2345279453846961   T   T   T
  0.5320891800989640 -0.0355489782641619 -0.0149815759580761   T   T   T
  0.3064030914666322  0.0450417155714171  0.2950417155714180   T   T   T
 -0.1227600201523405  0.2471403585824851  0.4971403585824881   T   T   T
  0.6982502091883318  0.5634867843710812  0.8134867843710861   T   T   T
  0.5187234121935158  0.4867944354648969  0.5115302671837925   T   T   T
  0.2006444587306279  0.4793081580003118  0.7293081580003165   T   T   T
  0.1886914744193289  0.7682812307783043  0.0182812307783047   T   T   T
  0.0088747645279535  0.7502681385907811  0.7520788993298682   T   T   T
  0.2450324617065055  0.7737266945487083  0.4880262930212200   T   T   T
  0.2714887326826147  0.0126576355387485  0.7375539846539059   T   T   T
  0.7871185318157438  0.0042443401938298  0.7233538316258081   T   T   T
  0.7533306512141891  0.2371432467335795  0.0023512182147293   T   T   T
  0.5187234121935157  0.2615302671837895  0.7367944354649001   T   T   T
  0.2450324617065078  0.2380262930212163  0.0237266945487107   T   T   T
  0.2714887326826152  0.4875539846539029  0.2626576355387504   T   T   T
  0.0088747645279577  0.5020788993298636  0.0002681385907835   T   T   T
  0.7871185318157448  0.4733538316258044  0.2542443401938331   T   T   T
  0.7533306512141881  0.7523512182147287  0.4871432467335817   T   T   T
  0.5320891800989618  0.7350184240419227  0.2144510217358398   T   T   T
