Sr Co O 
 1.0000000000000000
    -3.8787855245252314    0.0128856152303556   -3.8797612413519715
    -3.8372708414717307   -8.0572457159084312    3.8649883586715168
    -3.8483601340462972    8.0431802833208259    3.8236339837832247
 Sr  Co  O  
   8   8  20
Selective dynamics
Direct
  0.0045771045226904  0.0049941789158696  0.0008509350414645   T   T   T
  0.5065577981318419  0.2708072765822526  0.2414112942679350   T   T   T
 -0.0102346047988616  0.5080788420573491  0.4916946860606606   T   T   T
  0.4966283200911220  0.7604503606221162  0.7622023021763642   T   T   T
  0.5127324412310228  0.0079876053763360  0.5214833966814422   T   T   T
  0.0035561258676699  0.2418754548780719  0.7724916770448574   T   T   T
  0.5079978798775223  0.4886621604790041  0.0054377279928228   T   T   T
  0.0072494786657106  0.7378124616891949  0.2319231083458808   T   T   T
  0.5271982330682263  0.8612427179838268  0.1148350749108260   T   T   T
 -0.0579170270425748  0.1284370049863950  0.3749140366589555   T   T   T
  0.4665689674952649  0.3751233671473472  0.6199349797642026   T   T   T
  0.0241822082908522  0.6224496736518753  0.8755036639196700   T   T   T
 -0.0178426477411576  0.8755990262724030  0.6461422254117940   T   T   T
  0.5008213633290277  0.1246431602247763  0.8874508030432697   T   T   T
  0.0136474832221802  0.3785665050255100  0.1278858505113477   T   T   T
  0.5288064669604259  0.6356763777284531  0.3652721870039164   T   T   T
  0.7150413696230150  0.6968810526654384 -0.0468303691348490   T   T   T
  0.8158047117700422 -0.0384208419530210  0.2155857029251218   T   T   T
  0.4845986795117075  0.0017696776755311  0.0314878667208857   T   T   T
  0.0454609366264172  0.2474687200092651  0.2803093750564132   T   T   T
  0.6395653334265027  0.2313401970828135  0.4690956836299179   T   T   T
  0.5123212303679358  0.5156002956978470  0.5368906099864293   T   T   T
  0.1691519045376542  0.4552131364175272  0.7076685106573647   T   T   T
  0.2358823861045786  0.7617450906209474  0.0052113625086015   T   T   T
  0.0125231021634845  0.7279633580734586  0.7348682014062617   T   T   T
  0.2528591676026052 -0.0168851315344294  0.7377299567955836   T   T   T
  0.0516387767300255  0.0453846667745034  0.4986336621628133   T   T   T
  0.7370648383117508  0.0049041536183218  0.7601988440563382   T   T   T
  0.7584081508816107  0.2470071642040869  0.0096278793215504   T   T   T
  0.5199284790496846  0.2789861466048512  0.7479310895759240   T   T   T
  0.2550203453214121  0.2497990473492916  0.0050335470281326   T   T   T
  0.2594405223208161  0.5238419134759918  0.2739311009069402   T   T   T
  0.0147604912269349  0.4977721183001725 -0.0119323280319912   T   T   T
  0.7667602494253775  0.4988732667022315  0.2469268467495545   T   T   T
  0.7705279209187228  0.7635411693601066  0.4935055172380174   T   T   T
  0.4687118405343337  0.7848085489449809  0.2646929727000576   T   T   T
