Sr Co O 
 1.0000000000000000
    -7.9778133558240674   -0.0000000000000000   -0.0484396504423986
    -0.0000000000000000   -7.8044011579465336    0.0000000000000000
     4.0372279428649236   -0.0000000000000000    7.7937041573233614
 Sr  Co  O  
   8   8  20
Selective dynamics
Direct
 -0.0063830377967272  0.0044504124065707 -0.0237028354670194   T   T   T
  0.2647122680970313  0.0019602146549388  0.5379027071155200   T   T   T
  0.5042422247898901  0.0045990873316342  0.0116614630105323   T   T   T
  0.7247413779051194 -0.0018340868476889  0.4992112636080515   T   T   T
 -0.0063830377967272  0.4955495875934291 -0.0237028354670194   T   T   T
  0.2647122680970313  0.4980397853450613  0.5379027071155200   T   T   T
  0.5042422247898901  0.4954009126683656  0.0116614630105323   T   T   T
  0.7247413779051194  0.5018340868476885  0.4992112636080515   T   T   T
  0.8938489253929608  0.7499999999999993  0.2511326789833441   T   T   T
  0.1081722915042315  0.7499999999999993  0.7330042637669356   T   T   T
  0.3390787564116038  0.7499999999999993  0.2603917798917465   T   T   T
  0.6227780535216488  0.7499999999999993  0.7491772237975317   T   T   T
  0.8762128144376113  0.2499999999999998  0.2794552501201227   T   T   T
  0.1280685846341078  0.2499999999999998  0.7601339396443240   T   T   T
  0.3738749387125038  0.2499999999999998  0.2422956742335065   T   T   T
  0.6156710267575531  0.2499999999999998  0.7403864883321422   T   T   T
  0.0666043157530537  0.7499999999999993  0.1656980567415981   T   T   T
  0.8896355696030112  0.0361939081745456  0.2085423459443392   T   T   T
  0.0463780509761951  0.7499999999999993  0.4936498401830909   T   T   T
  0.4269368898978397  0.7499999999999993  0.8018926540007344   T   T   T
  0.1429335993373351 -0.0217055957289140  0.7749379036419183   T   T   T
  0.6598041283895418  0.7499999999999993  0.2273203909393831   T   T   T
  0.3600728667170208 -0.0230608209881820  0.2253679239155142   T   T   T
  0.4923235899287094  0.7499999999999993  0.4991208724276623   T   T   T
  0.8653074534110652  0.7499999999999993  0.7558003479230418   T   T   T
  0.6361404795856349  0.0084864573752704  0.7731549555233188   T   T   T
  0.8896355696030112  0.4638060918254541  0.2085423459443392   T   T   T
  0.0374007211975297  0.2499999999999998  0.5188048467901497   T   T   T
  0.4085949996930996  0.2499999999999998  0.7939347244140149   T   T   T
  0.1429335993373351  0.5217055957289131  0.7749379036419183   T   T   T
  0.2211864065101470  0.2499999999999998  0.0084651079763941   T   T   T
  0.6266869243545782  0.2499999999999998  0.2583994711062846   T   T   T
  0.3600728667170208  0.5230608209881817  0.2253679239155142   T   T   T
  0.4347978098604133  0.2499999999999998  0.4697592922135135   T   T   T
  0.8490829422459241  0.2499999999999998  0.7270256603038376   T   T   T
  0.6361404795856349  0.4915135426247296  0.7731549555233188   T   T   T
