Sr Co O 
 1.0000000000000000
     3.8820534400482840    0.0291057512265967    3.9498542447628169
     3.8451638310864094   -3.9074292173469809   -3.9431666604237856
     4.0161008865852068   11.9637571171518271   -4.0111011744038390
 Sr  Co  O  
   8   8  20
Selective dynamics
Direct
  0.0165385835982136  0.0244782662801956 -0.0110011786956245   T   T   T
  0.5017726763760378  0.6464246130588982  0.8881259597524054   T   T   T
  0.0042539263789254  0.2790865647384688  0.7472078956129967   T   T   T
  0.4724114891089217  0.8298061135305551  0.6129235873478109   T   T   T
 -0.0032412108173866  0.4535217310852154  0.4798008147634999   T   T   T
  0.4985152530334577  0.0915950201192456  0.3827265522771344   T   T   T
  0.0039471484931113  0.7277113867505384  0.2589204122793135   T   T   T
  0.5124863699107657  0.3638437927321775  0.1199687898283798   T   T   T
  0.5736596898104084  0.8668222821879014  0.1278264889880970   T   T   T
 -0.0073491352866620  0.4838039626645386 -0.0062095282338573   T   T   T
  0.4950538238424776  0.1501558340084029  0.8576403182209973   T   T   T
 -0.0062003927406467  0.7781173761860174  0.7664634092726113   T   T   T
  0.5006517215561900  0.3109936710176170  0.6096621090424311   T   T   T
 -0.0048657580443059 -0.0292377212892917  0.4893660094957987   T   T   T
  0.4989840687833817  0.5955200683833822  0.3728169884547641   T   T   T
 -0.0007571131520906  0.2474484729177626  0.2486756509061037   T   T   T
  0.4471923524061402 -0.0161513910458696  0.0290071655057881   T   T   T
  0.7289694282299496  0.6400233145485342  0.0518099521431654   T   T   T
  0.7690888029178174  0.2724309151192497  0.9217059072832761   T   T   T
  0.0217378929351253  0.6521114914644422  0.8877619017860794   T   T   T
  0.2784643552981164  0.3518007374955772  0.9458646945277887   T   T   T
  0.2308651604894650  0.9896277193482559  0.8015338660823471   T   T   T
  0.5100151472801646  0.3458617150560401  0.7478717826474051   T   T   T
  0.7055760372231472  0.9049435849341463  0.7838745394604762   T   T   T
  0.0938926995804071  0.6030078198452190  0.6600602368160984   T   T   T
  0.2431171649160694  0.1185028769582129  0.5670827790745758   T   T   T
  0.5109321902477305  0.4555168143976493  0.5076675818864120   T   T   T
  0.7733437434948968  0.1477528911126382  0.5771636183393291   T   T   T
  0.7477415924226071  0.7874408342175403  0.4503752578510681   T   T   T
 -0.0062915169315832  0.0969606769869404  0.3678507106832612   T   T   T
  0.2385570426262387  0.7603136433497153  0.4336831777996780   T   T   T
  0.2747567048078319  0.3786530784593707  0.3004906746734209   T   T   T
  0.4676888035831083  0.7769766615671071  0.2411062758128522   T   T   T
  0.7493335153200154  0.4337822405973149  0.3047122917834720   T   T   T
  0.8664273895339816  0.0244873629420180  0.1673232146989287   T   T   T
  0.0427301776032162  0.3933652636386306  0.1206397639330980   T   T   T
