Sr Co O 
 1.0000000000000000
     3.9668380068164493   -3.9556250080649709   -0.0126348918236418
    -3.9431991740157057   -0.0020399774312886   -7.6158811384361336
     7.8934842752076371    7.8708137974552974   -0.0009012081405259
 Sr  Co  O  
   8   8  20
Selective dynamics
Direct
 -0.0079148494241501  0.0148641281162178 -0.0066080683804791   T   T   T
  0.7456305645168760  0.5100136806907291  0.8774746213116917   T   T   T
  0.4819621113395017 -0.0037373835531838  0.7463267896970257   T   T   T
  0.2422555061550884  0.4818204247454497  0.6074558815175788   T   T   T
  0.0059878815316348 -0.0113515507803316  0.5022166651938182   T   T   T
  0.7585627123097946  0.4996886470427243  0.3882019680084288   T   T   T
  0.5007759470423618 -0.0014015533266539  0.2502885475401239   T   T   T
  0.2502502767681143  0.5120461447276047  0.1350088376110039   T   T   T
  0.8778909795569680  0.7545945384231867  0.1914704188546616   T   T   T
  0.6137965559809883  0.2344597328416856  0.0561834078309403   T   T   T
  0.3427835582425020  0.7490328936141304  0.9434870600183834   T   T   T
  0.1444438904260401  0.2612199195307772  0.8225344005951347   T   T   T
  0.8931220308405673  0.7550984529474483  0.6846996534929760   T   T   T
  0.6036405481801297  0.2374949245763883  0.5534742847144404   T   T   T
  0.3884953862420141  0.7528583329385110  0.4418769638355259   T   T   T
  0.1320425849406074  0.2602308003355573  0.3111743498758227   T   T   T
  0.6496913911832380  0.7576897006873388  0.0731910203330867   T   T   T
  0.1035990371173349  0.7349224953904665  0.0711589416395532   T   T   T
  0.4082186537049824  0.2901520118987481  0.9626882371286009   T   T   T
  0.8999099304668676  0.2945169743255290  0.9319611290804316   T   T   T
  0.5260855291314510 -0.0213687575194215 -0.0305031590697649   T   T   T
  0.0746600048544063  0.7659579269704863  0.8235212817865314   T   T   T
  0.2903557490896934  0.5213825048032065  0.8474516686101904   T   T   T
  0.3433268943716923  0.2322220947694413  0.6872958946761871   T   T   T
 -0.0491498414950888  0.0126601515840636  0.7575094749840635   T   T   T
  0.6138623478405256  0.7246886663073496  0.5857201588047553   T   T   T
  0.1287940791218400  0.7503193129471116  0.5618797175038812   T   T   T
  0.7787930271331884  0.4678815722034139  0.6342116036654429   T   T   T
  0.3694313662690031  0.2327416330977924  0.4263387939534750   T   T   T
  0.8863799210680279  0.2189162163445894  0.4182280679685174   T   T   T
  0.5460072175189452  0.0035937061157069  0.5175805341534027   T   T   T
  0.1289698449249848  0.7783840195539031  0.3098962494391463   T   T   T
  0.6486479132949151  0.7428429111953173  0.3086821308073265   T   T   T
  0.2546828696493627  0.5094231902978881  0.3702224261671640   T   T   T
  0.8548807179510219  0.2741252504365245  0.1831202772233096   T   T   T
  0.3191278238681054  0.2020163054071877  0.1795797808310190   T   T   T
