Sr Co O 
 1.0000000000000000
    -3.7087403762565745    0.0000000000000000    0.0000000000000000
     0.0000000000000000    3.9667569886396032    8.0112261073211606
     0.0000000000000000   11.9942452488667524   -8.0571501167134194
 Sr  Co  O  
   8   8  20
Selective dynamics
Direct
 -0.0000000000000000 -0.0141783020840613  0.0042417276402328   T   T   T
 -0.0000000000000000  0.4127782352984540  0.8735388681929769   T   T   T
 -0.0000000000000000  0.7440373155810404  0.7509570414725552   T   T   T
 -0.0000000000000000  0.1478151951975266  0.6224844061313943   T   T   T
 -0.0000000000000000  0.4964945778810501  0.5023251513202900   T   T   T
 -0.0000000000000000  0.8805956030623959  0.3729925934550198   T   T   T
 -0.0000000000000000  0.2618484425257124  0.2711556016369526   T   T   T
 -0.0000000000000000  0.6463246843671269  0.1279919861140139   T   T   T
  0.5000000000000003  0.3413206713107009  0.0625742287912607   T   T   T
  0.5000000000000003  0.7042380408163063  0.9392330208931547   T   T   T
  0.5000000000000003  0.0583514541881203  0.7994850281288435   T   T   T
  0.5000000000000003  0.4470647949844828  0.6909290099201232   T   T   T
  0.5000000000000003  0.8202960480685862  0.5624134319777678   T   T   T
  0.5000000000000003  0.1919451612799451  0.4434111562326665   T   T   T
  0.5000000000000003  0.5655073724676708  0.3159941280339973   T   T   T
  0.5000000000000003  0.9401889351254632  0.1958451186983444   T   T   T
 -0.0000000000000000  0.2659856202151368  0.0265735393173890   T   T   T
  0.5000000000000003 -0.0760031190474199  0.8825781543682198   T   T   T
  0.5000000000000003  0.5082776521138503 -0.0009515214504420   T   T   T
 -0.0000000000000000  0.7064280939102414  0.9374615450436670   T   T   T
  0.5000000000000003  0.5842957664929770  0.8107322853705301   T   T   T
  0.5000000000000003  0.9375614864630365  0.6821034896475096   T   T   T
  0.5000000000000003  0.2509594403009492  0.7767611773230358   T   T   T
 -0.0000000000000000  0.4469308363762954  0.6917327225859802   T   T   T
  0.5000000000000003  0.3161854675200345  0.5722056090422349   T   T   T
  0.5000000000000003  0.6511889212867293  0.6196492708388230   T   T   T
  0.5000000000000003  0.7105606148056693  0.4477345426687821   T   T   T
  0.5000000000000003 -0.0053219059590695  0.5103349094449466   T   T   T
 -0.0000000000000000  0.1848789407154345  0.4432995519285337   T   T   T
  0.5000000000000003  0.0637005468885409  0.3106950246037247   T   T   T
  0.5000000000000003  0.3851746910659831  0.3842690700936017   T   T   T
 -0.0000000000000000  0.5693149737416952  0.3128536802776400   T   T   T
  0.5000000000000003  0.4024227269535771  0.1861957546753167   T   T   T
  0.5000000000000003  0.7503944202906345  0.2464484412976561   T   T   T
 -0.0000000000000000  0.9925568275035398  0.1784445721941592   T   T   T
  0.5000000000000003  0.8348795757827336  0.0703054880906165   T   T   T
