Sr Co O 
 1.0000000000000000
    -0.0336691998276169    8.0095753751657739   -0.0029454028061815
     7.7832455352519219   -0.0333322930507373    0.0249654690717823
    -3.8997295457448664   -3.9850223207116846   -7.6362037148163759
 Sr  Co  O  
   8   8  20
Selective dynamics
Direct
  0.0055437913155033 -0.0117420475806019  0.0202104569216377   T   T   T
  0.7256340705669478  0.7341608528977833  0.4950084128943577   T   T   T
  0.4859215673555732  0.5053098378704123 -0.0036975761178059   T   T   T
  0.2432738349180014  0.2571893365478001  0.4909182118207208   T   T   T
  0.5067261650819993 -0.0071893365478000  0.0090817881792795   T   T   T
  0.2640784326444268  0.7446901621295883  0.5036975761178062   T   T   T
  0.0243659294330523  0.5158391471022176  0.0049915871056427   T   T   T
  0.7444562086844970  0.2617420475806022  0.4797895430783627   T   T   T
  0.1346893012118306  0.1269879910833667  0.7413180665769363   T   T   T
  0.8763439046671112  0.8786949976492194  0.2586191431497242   T   T   T
  0.6305257025191622  0.6376056153701725  0.7562250406904740   T   T   T
  0.3645774681006113  0.3688547868655860  0.2423013838388129   T   T   T
  0.6153106987881705  0.1230120089166340  0.7586819334230649   T   T   T
  0.3854225318993886  0.8811452131344149  0.2576986161611874   T   T   T
  0.1194742974808388  0.6123943846298286  0.7437749593095271   T   T   T
  0.8736560953328888  0.3713050023507815  0.2413808568502763   T   T   T
  0.1969225335358825  0.2034062575940765 -0.0329717689073179   T   T   T
 -0.0109249253223558 -0.0575046317975262  0.5214424854734008   T   T   T
  0.6408174561698363  0.8549591504513973  0.2445873752828261   T   T   T
  0.7485076705859794  0.6999451231417236 -0.0103030484554087   T   T   T
  0.3750000000000002  0.6250000000000006  0.7500000000000002   T   T   T
  0.5083950383492045  0.4913638051307911  0.5165210122381285   T   T   T
  0.3750000000000002  0.1250000000000001  0.2500000000000002   T   T   T
  0.1091825438301641  0.3950408495486044  0.2554126247171742   T   T   T
  0.7609249253223561  0.3075046317975267 -0.0214424854733999   T   T   T
  0.6676120639777370  0.8977245230345680  0.7766018677536668   T   T   T
  0.3750000000000003  0.1250000000000004  0.7500000000000003   T   T   T
  0.5530774664641174  0.0465937424059234  0.5329717689073183   T   T   T
  0.3750000000000001  0.6250000000000010  0.2500000000000003   T   T   T
  0.1129173867449631  0.8662590270085354  0.2682816287606543   T   T   T
  0.2416049616507956  0.7586361948692099 -0.0165210122381282   T   T   T
  0.0823879360222631  0.3522754769654332  0.7233981322463336   T   T   T
  0.8750000000000002  0.6250000000000007  0.7500000000000004   T   T   T
  0.0014923294140204  0.5500548768582774  0.5103030484554092   T   T   T
  0.8750000000000002  0.1250000000000001  0.2500000000000002   T   T   T
  0.6370826132550365  0.3837409729914640  0.2317183712393459   T   T   T
