Sr Co O 
 1.0000000000000000
    -0.0528756173761797    8.0128341895812873   -0.0063229962261330
     7.9189328716828680   -0.0535991420324820   -0.0559917603379249
    -3.8764410852927127   -3.9715472776169691   -7.8244299675476485
 Sr  Co  O  
   8   8  20
Selective dynamics
Direct
  0.0242303813057000  0.0197916095376279  0.0203289638243760   T   T   T
  0.7202458564178544  0.7301027002611261  0.4902395789759622   T   T   T
  0.4664849589062878  0.5038356893741729  0.0021757418355701   T   T   T
  0.2517150057070994  0.2611347537754332  0.4966051265619206   T   T   T
  0.5018909190177159  0.0227044855052549  0.0355648477036222   T   T   T
  0.2387695456706474  0.7352123046445451  0.4747731973762421   T   T   T
  0.0294499592921809  0.4943594550531823 -0.0064789197698756   T   T   T
  0.7558754871439194  0.2233689368392766  0.5055277954961428   T   T   T
  0.1556884233173099  0.1007903008140760  0.7637993983509275   T   T   T
  0.8421280505331115  0.8729985918303410  0.2105104351055727   T   T   T
  0.6580466754261254  0.6035728793405392  0.7591426274432009   T   T   T
  0.3716599668455217  0.3789769525921612  0.2574641145881774   T   T   T
  0.5964725286786388  0.1280504770681757  0.7390902724655747   T   T   T
  0.3749134682272920  0.8726515245438916  0.2553168462040933   T   T   T
  0.1099335857702160  0.6513630043565122  0.7505278010528353   T   T   T
  0.8814086942655835  0.3676547166082252  0.2738802380209950   T   T   T
  0.2424255712151807  0.2487977590832207  0.0022204040651587   T   T   T
  0.2237275079823256  0.8635685087498053  0.7581535038650240   T   T   T
  0.9119448866872396  0.0588415426817915  0.6843536826115093   T   T   T
  0.6594280051541941  0.8660549548246191  0.2750455925778851   T   T   T
  0.6639500488414777  0.7343075029274833 -0.0307854858206692   T   T   T
  0.6910260167197952  0.3694000206701749  0.7613863277592643   T   T   T
  0.4773076561793040  0.5411626908787710  0.5398315369936667   T   T   T
  0.3836941767333643  0.1461166368872964  0.2779110463733622   T   T   T
  0.0841235812822798  0.3876285937258203  0.2355990707181916   T   T   T
  0.7198635761451019  0.1245563922100078 -0.0634968554183274   T   T   T
  0.3537981961797063  0.1690937954804340  0.7340091406577711   T   T   T
  0.4932034438182381 -0.0186325716413603  0.5080446118069192   T   T   T
  0.3718933003534174  0.6149288670235079  0.2484770388373561   T   T   T
  0.0698589239668328  0.8283966509064541  0.2336791125769363   T   T   T
  0.2593073069675594  0.7625121226343990  0.0097602768381793   T   T   T
  0.1205541509572591  0.4193545837643702  0.7365265431604107   T   T   T
  0.8770365018198629  0.7054082448573381  0.7707363959476712   T   T   T
 -0.0059119581594114  0.5624705023636739  0.5012292593504808   T   T   T
  0.9068124497330946  0.1388876983955561  0.3035892180704964   T   T   T
  0.6420425558430840  0.3855770527965007  0.2352612769606255   T   T   T
