Sr Co O 
 1.0000000000000000
    -3.9928860793433425    4.0323666674376790    3.7309246193073307
     3.9482867446194985   -0.0892565296648661    7.5062646166381723
     3.9848905023145544    8.1662106431219712   -0.1064233109132604
 Sr  Co  O  
   8   8  20
Selective dynamics
Direct
  0.0390398135513091 -0.0203928896007029  0.0072717392523608   T   T   T
  0.2759461068353314  0.3931400161630696  0.8539249567114813   T   T   T
  0.5023305451295047  0.7616093444906263  0.7099463004312635   T   T   T
  0.7376672981501773  0.1314895891631130  0.5942313876498139   T   T   T
 -0.0081265759829701  0.5020821996004202  0.4888450647155462   T   T   T
  0.2302405919171063  0.8704573870043901  0.3901710309737953   T   T   T
  0.4735555504398899  0.2337759238152587  0.2809528081265810   T   T   T
  0.7528552507271963  0.6116496556026456  0.1468264372432144   T   T   T
  0.0021127698378312  0.2329293303944485  0.2628261454833579   T   T   T
  0.2265934524779946  0.6005594500878080  0.1439269624921937   T   T   T
  0.5064059111342977  0.0512487905120659  0.0033282083069194   T   T   T
  0.7742875976697307  0.3845674387984884  0.8443879375270211   T   T   T
 -0.0001259035089164  0.7487087303424177  0.7273454873224883   T   T   T
  0.2366213776764486  0.1266752719072223  0.6338567940993395   T   T   T
  0.4982640625608993  0.4955754486347692  0.4913828895106789   T   T   T
  0.7429896119306831  0.8718097393245091  0.3666677516329582   T   T   T
  0.8505641983685105  0.0680492373368350  0.2934970436018895   T   T   T
  0.2439075133061374  0.0848165021852295  0.1542813985577114   T   T   T
  0.1019431435168583  0.4132076683280322  0.1448271809467461   T   T   T
  0.2477189739913217  0.6834462402539639  0.9485960798471279   T   T   T
  0.4391395565549998  0.0436552377365857  0.8261069710832262   T   T   T
  0.5825207587397293  0.2730497265892001  0.9894818990808737   T   T   T
  0.0204815107061746  0.2467206004467451  0.8039595338114131   T   T   T
  0.6449239695696434  0.4455090127537453  0.6794198496034237   T   T   T
  0.8357918953944008  0.5974043075703613  0.8590082662375632   T   T   T
  0.2396511673918307  0.6204314082480640  0.6199069666979917   T   T   T
  0.8587868243602076  0.8225291060825867  0.5648116678055047   T   T   T
  0.0901558499386649  0.9397087984109175  0.7199358826811865   T   T   T
  0.4767264174284685 -0.0059324687219600  0.4906952775258332   T   T   T
  0.0951244734758164  0.1970571388029362  0.4550365025371811   T   T   T
  0.3749839677347020  0.3088035887862839  0.5671748744834131   T   T   T
  0.7467778338099076  0.3714661087670277  0.3572692664529440   T   T   T
  0.3790941609901811  0.5468714675810689  0.2858749758083158   T   T   T
  0.6123895436158430  0.6883210343886511  0.4218221557589824   T   T   T
  0.0047299191244680  0.7436800549593259  0.2534570363451308   T   T   T
  0.6639309573607670  0.9153199738936666  0.1189452468701603   T   T   T
