Sr Co O 
 1.0000000000000000
    -0.0000000000000000    8.0298521860468579   -0.0000000000000000
     7.6684525508271060   -4.0149260930234290   -0.0168709862172182
    -3.8178054946050746    0.0000000000000000   -7.7959996273887882
 Sr  Co  O  
   8   8  20
Selective dynamics
Direct
  0.0051926978105458 -0.0004014779349348 -0.0023017777361487   T   T   T
  0.8564685699009777  0.7555182622390201  0.4985404413011625   T   T   T
  0.7215204149730176  0.4882633205752176 -0.0079590044514298   T   T   T
  0.6109080284103134  0.2591974422969163  0.5164092573647270   T   T   T
  0.4944058242545197 -0.0004014779349348 -0.0023017777361487   T   T   T
  0.3990496923380433  0.7555182622390201  0.4985404413011625   T   T   T
  0.2667429056022012  0.4882633205752176 -0.0079590044514298   T   T   T
  0.1482894138866036  0.2591974422969163  0.5164092573647270   T   T   T
  0.3121329313110926  0.1242658626221846  0.7441755658401911   T   T   T
  0.1902052514864073  0.8804105029728145  0.2538236455695481   T   T   T
  0.0577389464344928  0.6154778928689850  0.7814160117257029   T   T   T
  0.9325753230642508  0.3651506461285001  0.2210573616969775   T   T   T
  0.8142152808376444  0.1284305616752875  0.7406542040390731   T   T   T
  0.6758298380293489  0.8516596760586966  0.2435776987935974   T   T   T
  0.5723508756298419  0.6447017512596827  0.7523021008728322   T   T   T
  0.4337888035303806  0.3675776070607606  0.2570002634621736   T   T   T
  0.3605833000805995  0.2211666001611984  0.0040887828691950   T   T   T
  0.0766262015928431  0.1150458335298232  0.7486803482512938   T   T   T
  0.2167414066587894 -0.0665171866824213  0.5026199765762424   T   T   T
  0.9426066485843080  0.8369281297003874  0.2406701969605566   T   T   T
  0.1492531089578364  0.7985062179156727  0.0014089115718443   T   T   T
  0.9260612077502869  0.3521224155005724  0.6963283342473080   T   T   T
  0.8535474775083496  0.6423278173077086  0.7388374738837644   T   T   T
  0.7272490680552605  0.3751719550113113  0.2821056681456794   T   T   T
  0.9025341444470603  0.3050682888941192 -0.0027258437450176   T   T   T
  0.6957203363386073  0.8914406726772133  0.7540708394125119   T   T   T
  0.5384196319369806  0.1150458335298232  0.7486803482512938   T   T   T
  0.7484519609641579 -0.0030960780716854  0.4719023858578036   T   T   T
  0.5465032879057402  0.5930065758114798  0.2260260181143781   T   T   T
  0.3943214811160803  0.8369281297003874  0.2406701969605566   T   T   T
  0.6489445143310135  0.7978890286620256  0.0173934065435773   T   T   T
  0.4505060558033993  0.4010121116067980  0.7613629765678727   T   T   T
  0.2887803397993595  0.6423278173077086  0.7388374738837644   T   T   T
  0.5085077052680880  0.5170154105361752  0.5038337598120043   T   T   T
  0.3228043830032412  0.1456087660064825  0.2897183776812099   T   T   T
  0.1479228869560516  0.3751719550113113  0.2821056681456794   T   T   T
