Sr Co O 
 1.0000000000000000
     3.8817851756569812    3.8817851756569866    0.0000000000000000
     3.8817851756569803   -3.8817851756569857   -0.0000000000000000
    -0.0000000000000000   -0.0000000000000000  -15.5994618023401515
 Sr  Co  O  
   8   8  22
Selective dynamics
Direct
  0.0000000000000000 -0.0000000000000000 -0.0003674266596358   T   T   T
 -0.0000000000000000  0.0000000000000000  0.7503674266596355   T   T   T
 -0.0000000000000000  0.0000000000000000  0.4991336324676455   T   T   T
  0.0000000000000000 -0.0000000000000000  0.2508663675323541   T   T   T
  0.4999999999999985  0.5000000000000009 -0.0003674266596358   T   T   T
  0.4999999999999985  0.5000000000000009  0.7503674266596355   T   T   T
  0.4999999999999985  0.5000000000000009  0.4991336324676455   T   T   T
  0.4999999999999985  0.5000000000000009  0.2508663675323541   T   T   T
  0.5000000000000000  0.0000000000000001  0.8883068050569082   T   T   T
  0.5000000000000000  0.0000000000000001  0.6155042337603361   T   T   T
  0.5000000000000000  0.0000000000000001  0.3726975968569425   T   T   T
  0.5000000000000000  0.0000000000000001  0.1241760253782240   T   T   T
 -0.0000000000000015  0.5000000000000008  0.8616931949430904   T   T   T
 -0.0000000000000015  0.5000000000000008  0.6258239746217754   T   T   T
 -0.0000000000000015  0.5000000000000008  0.3773024031430572   T   T   T
 -0.0000000000000015  0.5000000000000008  0.1344957662396633   T   T   T
  0.5000000000000000  0.0000000000000001  0.0052561033816483   T   T   T
  0.2499999999999980  0.7500000000000014  0.8749999999999997   T   T   T
  0.2499999999999993  0.2500000000000004  0.8749999999999997   T   T   T
  0.2639968389722117  0.7639968389722155  0.6387293832424765   T   T   T
  0.2639968389722132  0.2360031610277864  0.6387293832424765   T   T   T
  0.5000000000000000  0.0000000000000001  0.5007540958070033   T   T   T
  0.2499999999999980  0.7500000000000014  0.3749999999999999   T   T   T
  0.2499999999999993  0.2500000000000004  0.3749999999999999   T   T   T
  0.5000000000000000  0.0000000000000001  0.2396007400950548   T   T   T
  0.2360031610277839  0.7360031610277873  0.1112706167575236   T   T   T
  0.2360031610277852  0.2639968389722144  0.1112706167575237   T   T   T
  0.7499999999999990  0.2500000000000003  0.8749999999999997   T   T   T
  0.7499999999999974  0.7500000000000010  0.8749999999999997   T   T   T
 -0.0000000000000015  0.5000000000000008  0.7447438966183516   T   T   T
  0.7360031610277848  0.2360031610277862  0.6387293832424765   T   T   T
  0.7360031610277833  0.7639968389722149  0.6387293832424765   T   T   T
 -0.0000000000000015  0.5000000000000008  0.5103992599049448   T   T   T
  0.7499999999999990  0.2500000000000003  0.3749999999999999   T   T   T
  0.7499999999999974  0.7500000000000010  0.3749999999999999   T   T   T
 -0.0000000000000015  0.5000000000000008  0.2492459041929967   T   T   T
  0.7639968389722128  0.2639968389722143  0.1112706167575237   T   T   T
  0.7639968389722114  0.7360031610277870  0.1112706167575236   T   T   T
