Sr Co O 
 1.0000000000000000
     3.9287022159963456   -3.9859460542880480    0.0273209683090222
    -4.0180412375190491   -0.0393898990564209   -7.9336175618828726
     7.9000381662872643    8.0223322258857444    0.1059568562931456
 Sr  Co  O  
   8   8  20
Selective dynamics
Direct
 -0.0038043764532503  0.0166111820058743 -0.0119306522384942   T   T   T
  0.7272064247888379  0.4752635210098850  0.8928137620945542   T   T   T
  0.4697034070572241  0.0039283982072494  0.7547556318489572   T   T   T
  0.2517473416778418  0.4705714023036376  0.6009385856305077   T   T   T
 -0.0302815667109135 -0.0109472489920279  0.5214585812021969   T   T   T
  0.7346033749420551  0.5014614894764849  0.3610549679956890   T   T   T
  0.5015750421083757  0.0270505622806740  0.2863928187628974   T   T   T
  0.2150826880097659  0.4770709708049682  0.1267876620481680   T   T   T
  0.8218616202958621  0.7306660246808772  0.1987123205912103   T   T   T
  0.5993308056035765  0.2327619650670654  0.0591751691225396   T   T   T
  0.4486319137469764  0.7407970462704029  0.9376384821008841   T   T   T
  0.1083006249103164  0.2567048591982874  0.8220803436601306   T   T   T
  0.8435808616054151  0.7535347800577608  0.6775024297665789   T   T   T
  0.5980025342697226  0.2321927696196666  0.5872603658009388   T   T   T
  0.3511435867350610  0.7446676106406412  0.4366221018593076   T   T   T
  0.1035735351101954  0.2574143789192384  0.2963140688932179   T   T   T
  0.7559303927764854  0.7760829076171072  0.0551463293041493   T   T   T
  0.4241809399331803  0.9444993176454060 -0.0368772957223842   T   T   T
  0.7611681540062206  0.4949829724654859  0.1320339993201377   T   T   T
  0.3607294298693722  0.2509237275750208  0.9492692843086766   T   T   T
  0.8501468225387795  0.2359991146611822  0.9311662779743624   T   T   T
  0.6352276282349598  0.6800825477470361  0.7863929171879598   T   T   T
  0.2249636248948432  0.5385006087757398  0.9220160983106888   T   T   T
  0.8796910579998538  0.2881695786028410  0.6947607254304528   T   T   T
  0.3558564319661823  0.2627949455962151  0.7052248653824518   T   T   T
 -0.0233231456794587 -0.0091598511905937  0.7520811482879411   T   T   T
  0.6194789674895714  0.7142598724199778  0.5369875331403781   T   T   T
  0.1098977132792017  0.7130821021299576  0.6016522745099110   T   T   T
  0.5148672198851697  0.3065042211009956  0.4697569235331575   T   T   T
  0.9468643715556722  0.1773950411693252  0.4090889095600084   T   T   T
  0.4762793670759804 -0.0117186866282583  0.5210058220868991   T   T   T
  0.0848800642263964  0.7980224137010697  0.3219155990092888   T   T   T
  0.5548190460098662  0.7545639991925936  0.2890916425861719   T   T   T
  0.1934046855767129  0.5004874990250352  0.3626138562910275   T   T   T
  0.8223270109143704  0.2044995198736474  0.1712525028109283   T   T   T
  0.3373518453020366  0.2202784021338827  0.1903437947310575   T   T   T
