Sr Co O 
 1.0000000000000000
     3.7677337785082776    0.0000000000000000    0.0000000000000000
     0.0000000000000000    3.9553142333013649    0.0000000000000000
     0.0000000000000000    0.0000000000000000   23.4699845813998316
 Sr  Co  O  
   6   6  13
Selective dynamics
Direct
  0.0000000000000000  0.0000000000000000 -0.0109570866262735   T   T   T
  0.0000000000000000  0.0000000000000000  0.1775886250596239   T   T   T
  0.0000000000000000  0.0000000000000000  0.3485887820660576   T   T   T
  0.0000000000000000  0.0000000000000000  0.5048098441242348   T   T   T
  0.0000000000000000  0.0000000000000000  0.6603438543631254   T   T   T
  0.0000000000000000  0.0000000000000000  0.8214226157559315   T   T   T
  0.5000000000000002  0.4999999999999999  0.0896648440895130   T   T   T
  0.5000000000000002  0.4999999999999999  0.2554421340474258   T   T   T
  0.5000000000000002  0.4999999999999999  0.4206581378217465   T   T   T
  0.5000000000000002  0.4999999999999999  0.5821786310686836   T   T   T
  0.5000000000000002  0.4999999999999999  0.7438279137880328   T   T   T
  0.5000000000000002  0.4999999999999999  0.9090320016960156   T   T   T
  0.0000000000000000  0.4999999999999999  0.0692270942890127   T   T   T
  0.5000000000000002  0.4999999999999999  0.1712178209989073   T   T   T
  0.5000000000000002  0.0000000000000000  0.2517917092501225   T   T   T
  0.5000000000000002  0.4999999999999999  0.3338053346261757   T   T   T
  0.0000000000000000  0.4999999999999999  0.4349798086134922   T   T   T
  0.5000000000000002  0.0000000000000000  0.4295140307620896   T   T   T
  0.0000000000000000  0.4999999999999999  0.5814999559805217   T   T   T
  0.5000000000000002  0.0000000000000000  0.5823829322272792   T   T   T
  0.0000000000000000  0.4999999999999999  0.7275605899014906   T   T   T
  0.5000000000000002  0.0000000000000000  0.7354480129019526   T   T   T
  0.5000000000000002  0.4999999999999999  0.8272429301134568   T   T   T
  0.0000000000000000  0.4999999999999999  0.9270145395689069   T   T   T
  0.5000000000000002  0.0000000000000000  0.9257149410519242   T   T   T
