Sr Co O 
 1.0000000000000000
     3.7871819109890454    0.0000000000000000    0.0000000000000000
     0.0000000000000000    3.9315985522196604    0.0000000000000000
     0.0000000000000000    0.0000000000000000   23.4668556432290671
 Sr  Co  O  
   6   6  13
Selective dynamics
Direct
  0.0000000000000000  0.0000000000000000  0.0058164784702710   T   T   T
  0.0000000000000000  0.0000000000000000  0.1586878713118804   T   T   T
  0.0000000000000000  0.0000000000000000  0.3097846712457800   T   T   T
  0.0000000000000000  0.0000000000000000  0.5130886699607896   T   T   T
  0.0000000000000000  0.0000000000000000  0.6679062991194262   T   T   T
  0.0000000000000000  0.0000000000000000  0.8482674761957051   T   T   T
  0.4999999999999995  0.4999999999999999  0.0850106293053921   T   T   T
  0.4999999999999995  0.4999999999999999  0.2351049963106871   T   T   T
  0.4999999999999995  0.4999999999999999  0.4083494910484057   T   T   T
  0.4999999999999995  0.4999999999999999  0.5906995220507458   T   T   T
  0.4999999999999995  0.4999999999999999  0.7586773507800293   T   T   T
  0.4999999999999995  0.4999999999999999  0.9227964142949688   T   T   T
  0.0000000000000000  0.4999999999999999  0.0845746198943096   T   T   T
  0.4999999999999995  0.0000000000000000  0.0859710971313599   T   T   T
  0.0000000000000000  0.4999999999999999  0.2320748552050969   T   T   T
  0.4999999999999995  0.0000000000000000  0.2415620339054309   T   T   T
  0.0000000000000000  0.4999999999999999  0.3769207076298130   T   T   T
  0.4999999999999995  0.4999999999999999  0.4855762128712664   T   T   T
  0.0000000000000000  0.4999999999999999  0.5869426236830543   T   T   T
  0.4999999999999995  0.0000000000000000  0.5868815975163864   T   T   T
  0.4999999999999995  0.4999999999999999  0.6818735445492106   T   T   T
  0.4999999999999995  0.0000000000000000  0.7602315741945526   T   T   T
  0.4999999999999995  0.4999999999999999  0.8366988408801240   T   T   T
  0.0000000000000000  0.4999999999999999  0.9367920811792065   T   T   T
  0.4999999999999995  0.0000000000000000  0.9330436841632250   T   T   T
