Sr Co O 
 1.0000000000000000
    -3.7274095470121411    0.0000000000000000    0.0000000000000000
     0.0000000000000000   -7.5453462160986584    0.0000000000000001
     0.0000000000000000    3.7726731080493292   16.9390330175142303
 Sr  Co  O  
   8   8  20
Selective dynamics
Direct
 -0.0000000000000000 -0.0042037690803331 -0.0084075381606662   T   T   T
  0.0000000000000000  0.1242597221066207  0.2485194442132420   T   T   T
  0.0000000000000000  0.2551481379460223  0.5102962758920456   T   T   T
 -0.0000000000000000  0.3698518620539762  0.7397037241079540   T   T   T
 -0.0000000000000000  0.5007402778933793  0.0014805557867585   T   T   T
 -0.0000000000000000  0.6292037690803334  0.2584075381606666   T   T   T
 -0.0000000000000000  0.7560957404350994  0.5121914808702009   T   T   T
  0.0000000000000000  0.8689042595648985  0.7378085191297991   T   T   T
  0.5000000000000002  0.8125000000000002  0.1250000000000003   T   T   T
  0.5000000000000002  0.9347904880526230  0.3853230214792094   T   T   T
  0.5000000000000002  0.0638148761790290  0.6249999999999997   T   T   T
  0.5000000000000002  0.1744674665734118  0.8646769785207897   T   T   T
  0.5000000000000002  0.3125000000000002  0.1250000000000003   T   T   T
  0.5000000000000002  0.4505325334265861  0.3853230214792093   T   T   T
  0.5000000000000002  0.5611851238209695  0.6249999999999997   T   T   T
  0.5000000000000002  0.6902095119473759  0.8646769785207900   T   T   T
  0.5000000000000002  0.7457796939716447  0.0170122542560552   T   T   T
 -0.0000000000000000  0.8125000000000002  0.1250000000000003   T   T   T
  0.5000000000000002  0.8792203060283558  0.2329877457439453   T   T   T
 -0.0000000000000000  0.9832608190862054  0.3709362497689357   T   T   T
  0.5000000000000002  0.0037325210689369  0.4967630370368211   T   T   T
 -0.0000000000000000  0.0607719811535180  0.6249999999999997   T   T   T
  0.5000000000000002  0.3124999999999992  0.6249999999999997   T   T   T
  0.5000000000000002  0.1319694840321149  0.7532369629631782   T   T   T
  0.0000000000000000  0.2373245693172682  0.8790637502310636   T   T   T
  0.5000000000000002  0.2712325602844109  0.0170122542560552   T   T   T
 -0.0000000000000000  0.3125000000000002  0.1250000000000003   T   T   T
  0.5000000000000002  0.3537674397155894  0.2329877457439453   T   T   T
 -0.0000000000000000  0.3876754306827299  0.3709362497689358   T   T   T
  0.5000000000000002  0.6795891649454340  0.3591783298908679   T   T   T
  0.5000000000000002  0.4930305159678831  0.4967630370368211   T   T   T
  0.0000000000000000  0.5642280188464807  0.6249999999999997   T   T   T
  0.5000000000000002  0.8124999999999989  0.6249999999999997   T   T   T
  0.5000000000000002  0.6212674789310609  0.7532369629631782   T   T   T
  0.0000000000000000  0.6417391809137933  0.8790637502310638   T   T   T
  0.5000000000000002  0.9454108350545649  0.8908216701091318   T   T   T
