Sr Co O 
 1.0000000000000000
    -3.9216395373885233   -0.0287383015333953   -3.8627882755353067
    -0.0287383015333957   -3.9216395373885211   -3.8627882755353062
   -11.6784659866661826  -11.6784659866661809    7.5532333017512716
 Sr  Co  O  
   8   8  20
Selective dynamics
Direct
  0.0022374189077225  0.0022374189077224 -0.0020667930295804   T   T   T
  0.6262543020181882  0.6262543020181888  0.1219347776058309   T   T   T
  0.2487456979818109  0.2487456979818117  0.2530652223941693   T   T   T
  0.8727625810922772  0.8727625810922789  0.3770667930295806   T   T   T
  0.5018305982035763  0.5018305982035771  0.4981847765970887   T   T   T
  0.1282975861492787  0.1282975861492814  0.6244075609427402   T   T   T
  0.7467024138507189  0.7467024138507203  0.7505924390572597   T   T   T
  0.3731694017964240  0.3731694017964232  0.8768152234029116   T   T   T
  0.6775601528754508  0.6775601528754550  0.9408366566009697   T   T   T
  0.3201864124294598  0.3201864124294601  0.0606647114743182   T   T   T
  0.9374999999999997  0.9374999999999998  0.1874999999999998   T   T   T
  0.5548135875705383  0.5548135875705404  0.3143352885256815   T   T   T
  0.1974398471245450  0.1974398471245483  0.4341633433990303   T   T   T
  0.8007456483307072  0.8007456483307095  0.5676420479900686   T   T   T
  0.4374999999999982  0.4375000000000016  0.6875000000000002   T   T   T
  0.0742543516692913  0.0742543516692920  0.8073579520099317   T   T   T
  0.0048637760883744  0.5094112317439486 -0.0008320632170667   T   T   T
  0.5094112317439493  0.0048637760883748 -0.0008320632170669   T   T   T
  0.5057269831557676  0.5057269831557665  0.0105213700034722   T   T   T
  0.6153852834904240  0.0928030239175218  0.1369862326076065   T   T   T
  0.0928030239175216  0.6153852834904223  0.1369862326076067   T   T   T
  0.2596147165095764  0.7821969760824775  0.2380137673923938   T   T   T
  0.7821969760824781  0.2596147165095776  0.2380137673923936   T   T   T
  0.8701362239116246  0.3655887682560524  0.3758320632170668   T   T   T
  0.3655887682560507  0.8701362239116255  0.3758320632170671   T   T   T
  0.3692730168442321  0.3692730168442338  0.3644786299965277   T   T   T
  0.5028772804548112 -0.0057511089201697  0.4989248831473688   T   T   T
 -0.0057511089201705  0.5028772804548116  0.4989248831473689   T   T   T
  0.1365471573673799  0.6629530896672324  0.6100204170517366   T   T   T
  0.6629530896672283  0.1365471573673837  0.6100204170517360   T   T   T
  0.6262433458115154  0.6262433458115207  0.6387205086645781   T   T   T
  0.7384528426326177  0.2120469103327716  0.7649795829482641   T   T   T
  0.2120469103327694  0.7384528426326177  0.7649795829482640   T   T   T
  0.2487566541884813  0.2487566541884819  0.7362794913354219   T   T   T
  0.3721227195451889  0.8807511089201696  0.8760751168526315   T   T   T
  0.8807511089201672  0.3721227195451917  0.8760751168526314   T   T   T
