Sr Co O 
 1.0000000000000000
     3.8552837620601665    0.0013719956998053    3.9047608067134014
     3.8091967539455616   -3.9497527539854418   -3.8611319302655591
     3.8014740683438082   11.8289226380410604   -3.8479722826107148
 Sr  Co  O  
   8   8  21
Selective dynamics
Direct
 -0.0044986013683678  0.0213107601751884 -0.0078896061651977   T   T   T
  0.4939114795339022  0.6473406457751908  0.8673954408386486   T   T   T
 -0.0017245332050303  0.2766552471702999  0.7513896930923677   T   T   T
  0.5000000000000018  0.8749999999999977  0.6249999999999999   T   T   T
  0.0017245332050320  0.4733447528296982  0.4986103069076333   T   T   T
  0.5060885204660984  0.1026593542248066  0.3826045591613520   T   T   T
  0.0044986013683697  0.7286892398248097  0.2578896061651972   T   T   T
  0.5000000000000009  0.3749999999999992  0.1249999999999998   T   T   T
  0.5000000000000028  0.8749999999999989  0.1249999999999997   T   T   T
  0.0184907932575931  0.5034698536483274  0.0001463693974911   T   T   T
  0.5004589134498703  0.1483804128068731  0.8714922681346091   T   T   T
  0.0014822561084155  0.7559543083227015  0.7571482172977723   T   T   T
  0.5000000000000020  0.3750000000000000  0.6250000000000004   T   T   T
 -0.0014822561084151 -0.0059543083227039  0.4928517827022287   T   T   T
  0.4995410865501309  0.6016195871931236  0.3785077318653921   T   T   T
 -0.0184907932575916  0.2465301463516705  0.2498536306025082   T   T   T
  0.2200095562741743  0.7181926441935644  0.0764043118000540   T   T   T
  0.4873592677011223 -0.0046181938929849  0.0099646929846241   T   T   T
  0.7322071552069199  0.3739772713811379  0.9534004325380249   T   T   T
 -0.0100390399345369  0.6555051434400989  0.8869296069943727   T   T   T
  0.2517313760637216  0.3140518136170932  0.9343721695664490   T   T   T
  0.2305045128904488  0.9522109941146415  0.7927787963808930   T   T   T
  0.5016257266571529  0.2929422183681376  0.7502205060269613   T   T   T
  0.7446897570887100  0.9751789415449069  0.8132568263239829   T   T   T
  0.7643030552764789  0.6043476422173283  0.6825190740409276   T   T   T
  0.2389776659954225  0.5781395522749960  0.6763273957729281   T   T   T
  0.2356969447235234  0.1456523577826705  0.5674809259590730   T   T   T
  0.4983742733428477  0.4570577816318599  0.4997794939730392   T   T   T
  0.7610223340045774  0.1718604477250004  0.5736726042270722   T   T   T
  0.7694954871095552  0.7977890058853544  0.4572212036191071   T   T   T
  0.0100390399345379  0.0944948565598984  0.3630703930056279   T   T   T
  0.2553102429112910  0.7748210584550879  0.4367431736760148   T   T   T
  0.2677928447930826  0.3760227286188598  0.2965995674619762   T   T   T
  0.5126407322988801  0.7546181938929836  0.2400353070153755   T   T   T
  0.7482686239362792  0.4359481863829038  0.3156278304335519   T   T   T
  0.7799904437258270  0.0318073558064341  0.1735956881999455   T   T   T
  0.0000000000000008  0.3749999999999989  0.1249999999999997   T   T   T
