Sr Co O 
 1.0000000000000000
     3.8848761374050222   -3.8526665462269944   -4.0033218450355870
    -3.8848761374050222   -3.8526665462269944    4.0033218450355870
    -7.7472878734103521    3.8526665462269944   -7.9842437170427818
 Sr  Co  O  
   8   8  20
Selective dynamics
Direct
 -0.0060255237822525  0.0180570768605269  0.0116507743792706   T   T   T
  0.6173233851503077  0.1331751443737545  0.7366280245475171   T   T   T
  0.2458584869801755  0.2297172707772663  0.4894520403848212   T   T   T
  0.9030706740904092  0.3780939497088103  0.2644908643650448   T   T   T
  0.4935936975187440  0.5176762981615238  0.0116507743792705   T   T   T
  0.1034528801737640  0.6193046393972100  0.7366280245475175   T   T   T
  0.7597347696075553  0.7435935534046466  0.4894520403848209   T   T   T
  0.3863969146562363  0.8614201902746366  0.2644908643650454   T   T   T
  0.6089268749196561  0.6216307518376207  0.7305576267572761   T   T   T
  0.2542040051225527  0.7503455186019030  0.5045495237244548   T   T   T
  0.8825579897346829  0.8622494480356763  0.2448074377703583   T   T   T
  0.5031616636161824  0.0038600603844870  0.0070217240006691   T   T   T
  0.1029871302705597  0.1439796999544840  0.7469668302250435   T   T   T
  0.7523818611094225  0.2423695346272659  0.4947513957366876   T   T   T
  0.3852596083311818  0.3747380868629337  0.2599976951941148   T   T   T
  0.0037392117474374  0.5009743546401668  0.0047135663876034   T   T   T
  0.8642223649061972  0.8666748532358225  0.7864798354873286   T   T   T
  0.4285650433257290  0.7216758524845681  0.6502408958102962   T   T   T
  0.1912124419922961  0.9614834947807289  0.6526959367730240   T   T   T
  0.4919030934462215 -0.0095390519240470  0.5016152533425235   T   T   T
  0.0708943410922364  0.7975607465007551  0.3684550875929905   T   T   T
  0.8256100992553742  0.0411095738145949  0.3667196730699688   T   T   T
  0.1615646737977732  0.1149502163183073  0.2370996473763420   T   T   T
  0.6805499009631413  0.9367540537990905  0.1173039547622308   T   T   T
  0.6795768568207550  0.2395229254384906 -0.0284771774858491   T   T   T
  0.0484379586611729  0.3241203461835637  0.8725583048447360   T   T   T
  0.4198049822515078  0.4222574705811326  0.7864798354873290   T   T   T
  0.9305514193804914  0.1868753097754698  0.6174267291559604   T   T   T
  0.6901616431778121  0.4376896949468284  0.6278513381246398   T   T   T
  0.0111543052665716  0.5097121598963023  0.5016152533425237   T   T   T
  0.5795975394398994  0.2881385667947285  0.3677361062346274   T   T   T
  0.3371150557342187  0.5525260800391965  0.3896411357734141   T   T   T
  0.6221494310580350  0.5755349735785696  0.2370996473763419   T   T   T
  0.1923961561393573  0.4304381662516691  0.1228343223910257   T   T   T
  0.9209091984349205  0.6843829335839764  0.1052921320188960   T   T   T
  0.2319998970756619  0.7919459656933975 -0.0284771774858485   T   T   T
