Sr Co O 
 1.0000000000000000
     3.8135089362076235    0.0000000000000000    0.0000000000000000
     0.0000000000000000    3.7049805717976523    0.0000000000000000
     0.0000000000000000    0.0000000000000000   26.5252183893843139
 Sr  Co  O  
   6   6  13
Selective dynamics
Direct
  0.0000000000000000  0.0000000000000000 -0.0139370396323263   T   T   T
  0.0000000000000000  0.0000000000000000  0.1791196973651719   T   T   T
  0.0000000000000000  0.0000000000000000  0.3171457639429020   T   T   T
  0.0000000000000000  0.0000000000000000  0.4970138121654101   T   T   T
  0.0000000000000000  0.0000000000000000  0.6856803257101597   T   T   T
  0.0000000000000000  0.0000000000000000  0.8354246058718798   T   T   T
  0.5000000000000003  0.4999999999999989  0.0848867130951137   T   T   T
  0.5000000000000003  0.4999999999999989  0.2516600263088117   T   T   T
  0.5000000000000003  0.4999999999999989  0.4079542698739718   T   T   T
  0.5000000000000003  0.4999999999999989  0.5867009472382059   T   T   T
  0.5000000000000003  0.4999999999999989  0.7618206712834217   T   T   T
  0.5000000000000003  0.4999999999999989  0.9097448820122611   T   T   T
  0.5000000000000003  0.4999999999999989  0.0190103417787912   T   T   T
  0.5000000000000003  0.4999999999999989  0.1517653800048283   T   T   T
  0.0000000000000000  0.4999999999999989  0.2481616960319296   T   T   T
  0.5000000000000003  0.0000000000000000  0.2473868489380161   T   T   T
  0.5000000000000003  0.4999999999999989  0.3384276214647193   T   T   T
  0.5000000000000003  0.0000000000000000  0.4342840709735991   T   T   T
  0.5000000000000003  0.0000000000000000  0.5555303038304809   T   T   T
  0.5000000000000003  0.4999999999999989  0.6543984128065615   T   T   T
  0.0000000000000000  0.4999999999999989  0.7527615756728011   T   T   T
  0.5000000000000003  0.0000000000000000  0.7503644708845557   T   T   T
  0.5000000000000003  0.4999999999999989  0.8360433159983823   T   T   T
  0.0000000000000000  0.4999999999999989  0.9197183557474453   T   T   T
  0.5000000000000003  0.0000000000000000  0.9222663070986694   T   T   T
