Sr Co O 
 1.0000000000000000
     4.0337113746876847   -3.9213354552655844   -3.8386855767723023
    -4.0129302797539639   -3.9193925534263840    3.8577575686303001
    -7.9699770919543615    3.9616958935724798   -7.6178656886628850
 Sr  Co  O  
   8   8  20
Selective dynamics
Direct
  0.0150919615691737  0.0138574426044822  0.0146417157515672   T   T   T
  0.6015431807392126  0.1558317908148792  0.7527821320471496   T   T   T
  0.2425340420635122  0.2709444678825468  0.4933203361699723   T   T   T
  0.8647925998472294  0.3476690386732595  0.2387025604369417   T   T   T
  0.5023913643797476  0.4986970512383690  0.0105112558524882   T   T   T
  0.1009655217792948  0.6064339564366603  0.7549321237979313   T   T   T
  0.7680525789028888  0.7408778382799609  0.4940516614831457   T   T   T
  0.3856977368483485  0.8633299468438279  0.2368476263083125   T   T   T
  0.6143814624632351  0.6045293400795102  0.7420638337436521   T   T   T
  0.2757465660090437  0.7394565605984130  0.5143597277501228   T   T   T
  0.8688801692629793  0.8693991183691677  0.2423326424093278   T   T   T
  0.4813180902639168  0.0022239820671716  0.0007687298974422   T   T   T
  0.1120143823943968  0.1545771632963986  0.7549907402647588   T   T   T
  0.7601826303423264  0.2513931282066010  0.4973303636381178   T   T   T
  0.3843695693391468  0.3705309083339591  0.2558208967059818   T   T   T
 -0.0021601310288980  0.4999260900038671  0.0031353907535307   T   T   T
  0.8118534031642147  0.6198492245915028  0.8784244707848494   T   T   T
  0.5179702322921399  0.7717658415666653  0.6570807722693141   T   T   T
  0.2168557619689824  0.9633546946424817  0.5732157540232881   T   T   T
  0.7995560267315327  0.0444369293041049  0.3765883941703421   T   T   T
  0.1224514011176283  0.0997794687571182  0.2669381514529838   T   T   T
  0.6942607402430384  0.9213941296256551  0.1040814587722246   T   T   T
  0.4314678434605190  0.1743338992868567  0.1280290188141376   T   T   T
  0.7021877051003795  0.2256187571201607 -0.0174123641302596   T   T   T
  0.2493570580198511  0.0151717621024074  0.8439464324536349   T   T   T
  0.0192405133252989  0.2986945910579223  0.8764879070270672   T   T   T
  0.3574315733088094  0.4112411705639889  0.7618902845064613   T   T   T
  0.8908470271445159  0.1425185800533034  0.6249038591547581   T   T   T
  0.6891219444079022  0.4389782722154507  0.6250045593272578   T   T   T
  0.0195232735068007  0.5104333012546075  0.5087796567687616   T   T   T
  0.5508897222120125  0.2929933518214819  0.3816236006539647   T   T   T
  0.3454146256497967  0.6138618054960148  0.3893022932623356   T   T   T
  0.6758696301766435  0.6223430203632081  0.2614552206346371   T   T   T
  0.1968237031840353  0.4265232587696924  0.1338433317296413   T   T   T
  0.9603647158036061  0.6769139111660434  0.1309334110766795   T   T   T
  0.2727113510240772  0.7401159892195112 -0.0117078952822593   T   T   T
