Sr Co O 
 1.0000000000000000
    -3.9162308823024037    3.9381132768565936    0.0517133367499343
     3.9162308823024037    3.9381132768565936   -0.0517133367499343
     0.2078094751353445   -3.9381132768565936  -15.4892101486878886
 Sr  Co  O  
   8   8  21
Selective dynamics
Direct
 -0.0104210804492776  0.0140407677785678  0.0060662113791315   T   T   T
  0.8836092580781503  0.8616568542158501  0.7395320024281424   T   T   T
  0.7518643169746277  0.7458909698659789  0.4976019017659383   T   T   T
  0.6169324500824065  0.6321903221673129  0.2524144717969612   T   T   T
  0.4920254436005633  0.5164872918284100  0.0060662113791315   T   T   T
  0.3778751482122948  0.3559227443499931  0.7395320024281424   T   T   T
  0.2517109318999617  0.2457375847913112  0.4976019017659383   T   T   T
  0.1202241496296502  0.1354820217145550  0.2524144717969612   T   T   T
  0.9054587415692755  0.4562503228576409  0.8617090644269150   T   T   T
  0.8254121100930953  0.3064969580817860  0.6319090681748801   T   T   T
  0.6814969281747550  0.1829931578700358  0.3644900860447901   T   T   T
  0.5471507903724543  0.0726613302631167  0.1198121206355710   T   T   T
  0.4559574602847262  0.9196248541894007  0.8755823144741243   T   T   T
  0.3182444283588742  0.8030611496422537  0.6213055780011260   T   T   T
  0.1860961897054457  0.6933282142304348  0.3794244039358787   T   T   T
  0.0545869562190519  0.5812737629762610  0.1358607191953117   T   T   T
  0.7316917193037227  0.2022926969609306  0.8803840964661430   T   T   T
  0.9462315091840667  0.3096096075153187  0.7558411166993839   T   T   T
  0.0740919769364452  0.0396691025811781  0.6137610795176229   T   T   T
  0.5857271379843256  0.0724302819094849  0.6151518871931875   T   T   T
  0.9407068891251037  0.9527332637866972  0.3934401529117992   T   T   T
  0.4623609155911746  0.9695157926389653  0.3842455049179606   T   T   T
  0.6449208933922452  0.0992928941057102  0.2442137874979552   T   T   T
  0.7803499149271986  0.8282785024007169  0.1086284173279137   T   T   T
  0.2730802896707758  0.7926228192470332  0.1142349331524565   T   T   T
  0.4330678144702341  0.0523888957023090 -0.0145432898274570   T   T   T
  0.7141138333023140  0.6909130785869041  0.9050269118892159   T   T   T
  0.1780913995052143  0.6486923771624210  0.8803840964661424   T   T   T
  0.3713030523628318  0.8874689457988177  0.7587719981616472   T   T   T
  0.5684128662814174  0.5663665232447952  0.6347793895262107   T   T   T
  0.0427216052837045  0.5294247492088625  0.6151518871931876   T   T   T
  0.2738047312780401  0.7227778042330747  0.4965825355111130   T   T   T
  0.4348385326944478  0.4349228340332251  0.3697613667276717   T   T   T
  0.9147297122789966  0.4218845893267875  0.3842455049179606   T   T   T
  0.0986708797188132  0.6611246399114694  0.2597955196302808   T   T   T
  0.3137481516568832  0.3158375327258746  0.1295856843827569   T   T   T
  0.8216121139054227  0.3411546434816819  0.1142349331524565   T   T   T
