Sr Co O 
 1.0000000000000000
    -4.1498630246543495    0.0092275781952660   -3.8641283213572604
    -0.0128442516937823   -3.9109788557202920   -3.8455451553730935
   -12.3716817482067025  -11.7365425122224050    7.6683286943456519
 Sr  Co  O  
   8   8  20
Selective dynamics
Direct
  0.0425751697664596 -0.0128433065922352 -0.0014225519813327   T   T   T
  0.7010655491860078  0.5784968084767261  0.1276021861074871   T   T   T
  0.3105341731214075  0.1708208209489748  0.2571325472894258   T   T   T
  0.8588884181791283  0.8796961139228420  0.3965120979638780   T   T   T
  0.4575678988200509  0.5590612660199565  0.5241070991935727   T   T   T
  0.0784702740366760  0.1845770916601292  0.6352690011145747   T   T   T
  0.7050512751693017  0.8058903017124425  0.7482145831142206   T   T   T
  0.3720886265206985  0.3851897901260556  0.8728645558190474   T   T   T
  0.7171472035815478  0.6770574431999206  0.9428147634157662   T   T   T
  0.3321388518685863  0.2914102658135816  0.0558543521387833   T   T   T
  1.0728764997505316  0.8580357290827513  0.1731887077262783   T   T   T
  0.5226603047147644  0.5240869435005550  0.3227828277821315   T   T   T
  0.1723804092656957  0.2317629880736895  0.4613492397205208   T   T   T
  0.7766494385737432  0.8658846346627309  0.5738015410523477   T   T   T
  0.3924119537689493  0.4905258946042553  0.6959646478597754   T   T   T
  0.0139463036010734  0.1371291706137368  0.8093537527616143   T   T   T
  0.0182772564617022  0.5026251549385384 -0.0060604714449560   T   T   T
  0.5811328077615943  0.0047940703999705 -0.0033093945601819   T   T   T
  0.2972509941104410  0.6098195859609868  0.0896566754218232   T   T   T
  0.1440079778117874  0.1668079859841989  0.1360245029436473   T   T   T
  0.3214877777042563  0.6678379801159464  0.2365482583235384   T   T   T
  0.7329184472660801 -0.0210559619193052  0.1593491279600801   T   T   T
  0.8329432485870053  0.2348213237992600  0.2933148969709914   T   T   T
  0.4830994928845257  0.8030630248270907  0.3684454277948650   T   T   T
  0.2448362078186168  0.4077136440100793  0.3734375501960945   T   T   T
  0.4821486909103894  0.0805600003802314  0.5065050729425847   T   T   T
 -0.0784729195113131  0.5509066075519673  0.5154779370196751   T   T   T
  0.0121211115239013  0.0146568396831868  0.4967800324866654   T   T   T
  0.0822130690556339  0.6497722860917292  0.6365197318717130   T   T   T
  0.6330447221244179  0.1732303886581114  0.6276305290596333   T   T   T
  0.5260706658443699  0.7228501796641723  0.6415764544675968   T   T   T
  0.7096379907069004  0.3217816779165769  0.7577983936954305   T   T   T
  0.1408897936788616  0.7912240173677718  0.7816957160229606   T   T   T
  0.2620071781523418  0.2586012324276444  0.7566565995985617   T   T   T
  0.4314821309601531  0.8397504271518066  0.8942986543414625   T   T   T
  0.8664509026568546  0.3434573475318561  0.8922649099149098   T   T   T
