Sr Co O 
 1.0000000000000000
    -3.7160826071462734    0.0000000000000000    0.0000000000000000
     0.0000000000000000    3.9278788587510349    7.9272776747372218
     0.0000000000000000   11.8220561273686862   -7.9465314494248229
 Sr  Co  O  
   8   8  20
Selective dynamics
Direct
 -0.0000000000000000 -0.0144639581029969  0.0036456940182060   T   T   T
 -0.0000000000000000  0.3898132165249530  0.8773425407561100   T   T   T
 -0.0000000000000000  0.7509758359974170  0.7508710354235592   T   T   T
 -0.0000000000000000  0.1058321202579110  0.6125845196483110   T   T   T
 -0.0000000000000000  0.4855199053056530  0.5001542087862322   T   T   T
 -0.0000000000000000  0.8879533012051214  0.3683766353267011   T   T   T
 -0.0000000000000000  0.2502911377325110  0.2555603546174846   T   T   T
 -0.0000000000000000  0.6381911443273596  0.1273834604787685   T   T   T
  0.4999999999999998  0.3121654683172879  0.0596507502365282   T   T   T
  0.4999999999999998  0.6890357927826026  0.9373645061695781   T   T   T
  0.4999999999999998  0.0721625662585071  0.8141920640680224   T   T   T
  0.4999999999999998  0.4307427713290768  0.6878182127250233   T   T   T
  0.4999999999999998  0.8091824389894384  0.5674766579249140   T   T   T
  0.4999999999999998  0.1847350710439566  0.4370047471939940   T   T   T
  0.4999999999999998  0.5613326487509067  0.3099457502039555   T   T   T
  0.4999999999999998  0.9419851478405801  0.1865403223240159   T   T   T
  0.4999999999999998  0.1374587348631631  0.1119092265708620   T   T   T
  0.4999999999999998  0.1946353807657657  0.9340253560092161   T   T   T
  0.4999999999999998  0.4848353583586704  0.0024413191830954   T   T   T
 -0.0000000000000000  0.6863504268615435  0.9311720297772693   T   T   T
  0.4999999999999998  0.5549801569975430  0.8014670364913615   T   T   T
  0.4999999999999998  0.8979137692812527  0.8705753814453688   T   T   T
  0.4999999999999998  0.9532905930115364  0.6974631876022713   T   T   T
  0.4999999999999998  0.2536708744305128  0.7546264614045081   T   T   T
  0.4999999999999998  0.3056678616737937  0.5753775860600738   T   T   T
  0.4999999999999998  0.6025428849547585  0.6247974478962568   T   T   T
 -0.0000000000000000  0.7853313574991678  0.5544821676306515   T   T   T
  0.4999999999999998 -0.0231291741849876  0.4930862686842590   T   T   T
 -0.0000000000000000  0.1902336869926462  0.4409670072798662   T   T   T
  0.4999999999999998  0.0738114304918863  0.3078584915770219   T   T   T
  0.4999999999999998  0.3959604610110044  0.3794153173511949   T   T   T
 -0.0000000000000000  0.5899048204678488  0.3393860141936411   T   T   T
  0.4999999999999998  0.4261154149156069  0.1770747157835942   T   T   T
  0.4999999999999998  0.7433177900573787  0.2585150529843281   T   T   T
 -0.0000000000000000  0.9426809752080453  0.1855982566826722   T   T   T
  0.4999999999999998  0.8089725265736075  0.0638502831186932   T   T   T
