Sr Co O 
 1.0000000000000000
     3.6849875518559436    0.0000000000000000    0.0000000000000000
     0.0000000000000000    7.8497640853937121   -0.0093490418895988
     0.0000000000000000   -0.0195557889149098   16.4937161641681840
 Sr  Co  O  
   8   8  21
Selective dynamics
Direct
  0.0000000000000000  0.0079650031092488 -0.0177012005927775   T   T   T
  0.0000000000000000  0.0027315042013674  0.2643457141467366   T   T   T
  0.0000000000000000 -0.0044507599047120  0.5086658257737847   T   T   T
  0.0000000000000000  0.0094482671158650  0.7443562176109755   T   T   T
  0.0000000000000000  0.5001624608244745 -0.0161539084277327   T   T   T
  0.0000000000000000  0.4920864675892243  0.2573490101646572   T   T   T
  0.0000000000000000  0.5087356356575491  0.5079948129630694   T   T   T
  0.0000000000000000  0.4981903079538367  0.7449728079159329   T   T   T
  0.4999999999999997  0.2430315201603282  0.1156507639881393   T   T   T
  0.4999999999999997  0.2512386254889274  0.3791646248387150   T   T   T
  0.4999999999999997  0.2535851509660379  0.6256361272537410   T   T   T
  0.4999999999999997  0.2542231638594125  0.8682125452264357   T   T   T
  0.4999999999999997  0.7189710331053752  0.1286322443327880   T   T   T
  0.4999999999999997  0.7497576213351198  0.3834648663659729   T   T   T
  0.4999999999999997  0.7521664298734454  0.6244644806278216   T   T   T
  0.4999999999999997  0.7545435360834652  0.8597000065734892   T   T   T
  0.4999999999999997  0.2514729586485599 -0.0002848708860526   T   T   T
  0.0000000000000000  0.1635555096179259  0.1289276341596375   T   T   T
  0.4999999999999997  0.2434052369019051  0.2675940702974094   T   T   T
  0.4999999999999997  0.0181955974243837  0.3807814937860108   T   T   T
  0.4999999999999997  0.2588342850057299  0.4880945764977623   T   T   T
  0.0000000000000000  0.2526760913919529  0.6188664819206795   T   T   T
  0.4999999999999997  0.0063740519071712  0.6234042550766847   T   T   T
  0.4999999999999997  0.2559497277232910  0.7488158961290767   T   T   T
  0.0000000000000000  0.2557780170626442  0.8727663935637580   T   T   T
  0.4999999999999997 -0.0058424484668047  0.8705646351644222   T   T   T
  0.4999999999999997  0.7843536603841240  0.0284528677172141   T   T   T
  0.4999999999999997  0.4902931960869861  0.1366967367934778   T   T   T
  0.4999999999999997  0.7833959403623011  0.2311983151447755   T   T   T
  0.0000000000000000  0.7467145123438775  0.3682540793418126   T   T   T
  0.4999999999999997  0.4842149778234365  0.3716284248255664   T   T   T
  0.4999999999999997  0.7491272669530337  0.4997898324290095   T   T   T
  0.0000000000000000  0.7530918712745701  0.6254501146716918   T   T   T
  0.4999999999999997  0.4995286177731701  0.6238464990217863   T   T   T
  0.4999999999999997  0.7496290286230580  0.7488602388424808   T   T   T
  0.0000000000000000  0.7516925922705215  0.8844921376620654   T   T   T
  0.4999999999999997  0.5151727855395662  0.8780452506109004   T   T   T
