Sr Co O 
 1.0000000000000000
    -3.6960240800712132    0.0000000000000000    0.0000000000000000
     0.0000000000000000    4.0567271284357362    7.8525522632982412
     0.0000000000000000   12.1560071419963585   -7.8484540173029949
 Sr  Co  O  
   8   8  20
Selective dynamics
Direct
 -0.0000000000000000 -0.0037317653834514 -0.0146282683998929   T   T   T
 -0.0000000000000000  0.3807680616111392  0.8798858471204501   T   T   T
 -0.0000000000000000  0.7674791338988329  0.7548517009196256   T   T   T
 -0.0000000000000000  0.1438375111995422  0.6316265213016240   T   T   T
 -0.0000000000000000  0.4874422898772033  0.4873485627789895   T   T   T
 -0.0000000000000000  0.8663877837223530  0.3480721340006143   T   T   T
 -0.0000000000000000  0.2565080066409897  0.2510701620102584   T   T   T
 -0.0000000000000000  0.6260648901261965  0.1167826154476155   T   T   T
  0.5000000000000004  0.3212279758387130  0.0578681869179345   T   T   T
  0.5000000000000004  0.6942911035476653  0.9323958628582756   T   T   T
  0.5000000000000004  0.0783874729388615  0.8133639135804845   T   T   T
  0.5000000000000004  0.4449518760097694  0.6858346646573295   T   T   T
  0.5000000000000004  0.7945879665423609  0.5602855925536800   T   T   T
  0.5000000000000004  0.1771348835605143  0.4264210225997605   T   T   T
  0.5000000000000004  0.5577312387260759  0.3036767619262497   T   T   T
  0.5000000000000004  0.9323901350454025  0.1785208640724914   T   T   T
 -0.0000000000000000  0.2722865241228891  0.0716919469528179   T   T   T
  0.5000000000000004  0.1917590237492470  0.9426597864719125   T   T   T
  0.5000000000000004  0.5039114612218709 -0.0007900195035348   T   T   T
 -0.0000000000000000  0.6870272462011415  0.9293587218879250   T   T   T
  0.5000000000000004  0.5647185083570946  0.7954822278845267   T   T   T
  0.5000000000000004  0.8794464271368605  0.8611348556899612   T   T   T
 -0.0000000000000000  0.0722416667394815  0.8015187008274440   T   T   T
  0.5000000000000004  0.2751714964649106  0.7485042013319201   T   T   T
  0.5000000000000004  0.3274586743124603  0.5738044765016403   T   T   T
  0.5000000000000004  0.6190419124013514  0.6203170421119781   T   T   T
  0.5000000000000004  0.7298010007356719  0.4401101821809559   T   T   T
  0.5000000000000004 -0.0535294530883383  0.6498378067344510   T   T   T
 -0.0000000000000000  0.1283950914026120  0.4543672500994888   T   T   T
  0.5000000000000004  0.0588187311009606  0.3015308254199223   T   T   T
  0.5000000000000004  0.3738836254105032  0.3792592810188716   T   T   T
 -0.0000000000000000  0.5629251488406294  0.3128501465827064   T   T   T
  0.5000000000000004  0.4145844140605296  0.1818923740488440   T   T   T
  0.5000000000000004  0.7417995781583470  0.2349529017375312   T   T   T
 -0.0000000000000000  0.9772588311483958  0.1700415400524120   T   T   T
  0.5000000000000004  0.8350415460882227  0.0555995685985462   T   T   T
