Sr Co O 
 1.0000000000000000
    -7.5062853683277000   -0.0000000000000000    0.0000000000000000
    -3.7531426841638500   -0.0000000000000000   -7.9198203996306340
    -3.7531426841638504   -7.9767422500551008    0.0000000000000000
 Sr  Co  O  
   8   8  21
Selective dynamics
Direct
 -0.0096897860585107  0.0104917346417176  0.0168693816586169   T   T   T
  0.2524625420373413  0.4907790699908641  0.0141239980214132   T   T   T
  0.4823286697581760  0.0104917346417176  0.0168693816586169   T   T   T
  0.7426343899503800  0.4907790699908641  0.0141239980214131   T   T   T
  0.5165865400587554  0.4907790699908641  0.4858760019785867   T   T   T
  0.7491980514167921  0.0104917346417176  0.4831306183413835   T   T   T
  0.0067583879717937  0.4907790699908641  0.4858760019785867   T   T   T
  0.2571795956001058  0.0104917346417176  0.4831306183413835   T   T   T
  0.0128156827409044  0.7243686345181901  0.7500000000000001   T   T   T
  0.2565465227545834  0.2369069544908321  0.7500000000000001   T   T   T
  0.5004825134282213  0.7490349731435555  0.7500000000000001   T   T   T
  0.7429471153981453  0.2641057692037076  0.7500000000000001   T   T   T
  0.4982001101550778  0.2521962501364126  0.2514035295534309   T   T   T
  0.7472580991235090  0.7537125687408561  0.2517712330121240   T   T   T
 -0.0003963602914902  0.2521962501364125  0.2485964704465689   T   T   T
  0.2490293321356336  0.7537125687408561  0.2482287669878759   T   T   T
  0.8748052122417255  0.7908339895676262 -0.0404444140510792   T   T   T
  0.1237504912389107  0.5024990175221775  0.7500000000000001   T   T   T
  0.5388337783920937  0.2108671423384521  0.7500000000000001   T   T   T
  0.1336562621235162  0.2498670015399979 -0.0171795257870303   T   T   T
  0.3875327885490443 -0.0250655770980896  0.7500000000000001   T   T   T
  0.3891558238378033  0.7439726754910907 -0.0222843231666981   T   T   T
  0.6168513275782163  0.5162973448435654  0.7500000000000001   T   T   T
  0.0002990792694528  0.2108671423384521  0.7500000000000001   T   T   T
  0.6265765034714051  0.2508624367572094 -0.0040154437000206   T   T   T
  0.3649592231182558  0.5074467666180561  0.2626347871454311   T   T   T
  0.7483561920486967  0.2532876159026050  0.2499999999999999   T   T   T
  0.3664767363364851  0.2498670015399979  0.5171795257870309   T   T   T
  0.6226057500152623 -0.0008535641174289  0.2556420640869035   T   T   T
 -0.0005960150074421  0.7511920300148862  0.2499999999999999   T   T   T
  0.6168715006711044  0.7439726754910907  0.5222843231666983   T   T   T
  0.8775940102636868  0.5074467666180561  0.2373652128545684   T   T   T
  0.2483561920486972  0.2532876159026050  0.2499999999999999   T   T   T
  0.8725610597713840  0.2508624367572094  0.5040154437000205   T   T   T
  0.1282478141021659 -0.0008535641174289  0.2443579359130965   T   T   T
  0.4994039849925560  0.7511920300148865  0.2499999999999999   T   T   T
  0.0843607981906468  0.7908339895676262  0.5404444140510793   T   T   T
