Sr Co O 
 1.0000000000000000
    -3.8808757680254100   -0.0026373599021418   -3.9750041117080586
    -3.7399254653859666    4.0036742445071516    7.8106044720129324
     3.7772784109119377    7.9591537981944276   -3.8624393466474176
 Sr  Co  O  
   8   8  20
Selective dynamics
Direct
 -0.0158566488464462 -0.0232317316489503 -0.0154362841358723   T   T   T
  0.6396135722726158  0.2372142340943096  0.8718362195112157   T   T   T
  0.2512193197333879  0.5000050355203943  0.7453834781111247   T   T   T
  0.8720855529124940  0.7359687176462875  0.6398925604994952   T   T   T
  0.5107036635187343  0.0007040391813956  0.5276919879522459   T   T   T
  0.1464633603642560  0.2791784618580483  0.3996346868545345   T   T   T
  0.7741555124067685  0.5055866875557002  0.2705897285785535   T   T   T
  0.3729114025134243  0.7358822631882791  0.1178412374157446   T   T   T
  0.4945248497063982  0.1312339074106839  0.1933315243145181   T   T   T
  0.2119151718358927  0.3813411102759354  0.0695753013936406   T   T   T
  0.8308657501913687  0.6186617849839535  0.9395965607503687   T   T   T
  0.4416542685272730  0.8637938097853656  0.8142343349202703   T   T   T
  0.0809736408539176  0.1348193526259352  0.7102684808770635   T   T   T
  0.6948169750097088  0.3726705008663001  0.5698668132196151   T   T   T
  0.3364617461045192  0.6373389694502148  0.4465211469225261   T   T   T
  0.9587940849135576  0.8546265975314733  0.2998638619931978   T   T   T
  0.5442508822017005  0.0078391682780298  0.0450532986091813   T   T   T
  0.4634824473208519  0.3007082349737191  0.1083815311754502   T   T   T
  0.1132066808785940  0.2464158511216807  0.9098654892026512   T   T   T
  0.0166350678107968  0.4911874499971844  0.0150475644412153   T   T   T
  0.1434194759557301  0.7604605881710600  0.8910194684481980   T   T   T
  0.7394340803636028  0.4843901381968522  0.7752334890602498   T   T   T
  0.6068697266897306  0.7212753400779160  0.8833292032346186   T   T   T
  0.7465268704375840 -0.0116847866781691  0.7571142483981605   T   T   T
  0.3546491606453688  0.7447938776392584  0.6330204076495218   T   T   T
  0.2416017307541053  0.0013615790341452  0.7478563950579412   T   T   T
  0.3834735386999546  0.2403816618949305  0.6148910487904319   T   T   T
  0.8947498453130446  0.2317298362187083  0.6255967034468843   T   T   T
 -0.0080614034129280  0.4977319328835215  0.5074037036914785   T   T   T
  0.6568538857713814  0.2261847286582754  0.3570148753206209   T   T   T
  0.5101369728503357  0.5090431748534155  0.5040959778206817   T   T   T
  0.6924000192356696  0.8027721322702670  0.4099058405766192   T   T   T
  0.2690871911310548  0.4957034012149926  0.2446851342247673   T   T   T
  0.1866316343346549  0.7709136342365487  0.3701196429738211   T   T   T
  0.1360820499043356  0.0382214705748835  0.2477992911331404   T   T   T
  0.8322675336971282  0.7247767137648973  0.1268750302120056   T   T   T
