Sr Co O 
 1.0000000000000000
     4.0366634796838481    0.0462202067838206    3.8809553852068226
    -0.0449330428133422   -7.9154707427489326   -0.0452482176188061
     8.2478240156205498   -0.0005810021859314   -7.9269980554241606
 Sr  Co  O  
   8   8  20
Selective dynamics
Direct
 -0.0283562596649064  0.0250906475326642  0.0103259461747661   T   T   T
  0.4463478320218704  0.0075717395297579  0.7763366324957551   T   T   T
 -0.0117629043811339  0.0070710147871543  0.4779809351494850   T   T   T
  0.5261232404989450  0.0275923730469178  0.2533087644949434   T   T   T
  0.0012495622140322  0.5096074838580561 -0.0269599291847004   T   T   T
  0.4788600452744433  0.4660027646009915  0.7403157165859445   T   T   T
  0.0069412499346877  0.4790117076905672  0.5085863386281920   T   T   T
  0.5501165069950414  0.4931552400803569  0.2786647011303554   T   T   T
  0.5246048710620368  0.7466707536032873  0.0404727667871988   T   T   T
 -0.0367942278290513  0.7379396852770200  0.7286250591183583   T   T   T
  0.4784930361173242  0.7544590980487561  0.5381951189974891   T   T   T
  0.0419249784454878  0.7145068136737838  0.2285878973274907   T   T   T
  0.5061987211598805  0.2852920271785837 -0.0127610179853276   T   T   T
 -0.0343447720000146  0.2544740150436325  0.7388943348895576   T   T   T
  0.4995442608183215  0.2291033205992135  0.5048604557567952   T   T   T
  0.0331842875715024  0.2582988479106098  0.2669036439060544   T   T   T
  0.3701704600095419  0.7485184347332086  0.1958822200586224   T   T   T
  0.0858867610589780  0.8279048305871778  0.8540688923418066   T   T   T
  0.5038421650885972 -0.0377659885839601 -0.0013223049561573   T   T   T
  0.6442466959034626  0.7604550052415631  0.6879242146450913   T   T   T
  0.1481906596111257  0.7751924881759666  0.5914817821350201   T   T   T
  0.5186506292140043 -0.0388709472175154  0.4707824707759237   T   T   T
  0.8889454331942342  0.7089608187592454  0.3656476654110225   T   T   T
  0.8470417318628713  0.7404226500463083  0.0979497156962574   T   T   T
  0.0411939252769379  0.0382151741668579  0.2290933973031641   T   T   T
  0.2403279306510028  0.2495899435487721  0.9032145323209237   T   T   T
  0.4982914844037162  0.5442249404771270 -0.0391253651703303   T   T   T
  0.7512740161015500  0.2280396720062194  0.8645151645112532   T   T   T
  0.7213926228120439  0.2245867495731677  0.6247964951766454   T   T   T
  0.0075950006593947  0.4993209802511018  0.7435206997492885   T   T   T
  0.2196228215298701  0.2042103258883534  0.6389504201885986   T   T   T
  0.2773034363485191  0.2550885542371485  0.3837418952361836   T   T   T
  0.4820917981299543  0.5270201520929677  0.5119420155585526   T   T   T
  0.7725049626916791  0.2655088502468212  0.3808908704566092   T   T   T
  0.6577043674862989  0.2732336110216094  0.1200492797560005   T   T   T
  0.0913929532800816  0.4602963132650019  0.1986585949806099   T   T   T
