Sr Co O 
 1.0000000000000000
     3.6793348597636317    0.0000000000000000    0.0000000000000000
     0.0000000000000000   -7.9999077009696382    7.9171198297586454
     0.0000000000000000   -4.0340001571982134  -11.9097808542863817
 Sr  Co  O  
   8   8  20
Selective dynamics
Direct
  0.0000000000000000  0.0132432314818502  0.0017161338579304   T   T   T
  0.0000000000000000  0.1097785854959815  0.7364189848281064   T   T   T
  0.0000000000000000  0.2462050555105322  0.5057524434025198   T   T   T
  0.0000000000000000  0.3836123539120573  0.2638647560688102   T   T   T
  0.0000000000000000  0.5266423998626749 -0.0017209390022591   T   T   T
  0.0000000000000000  0.6122631327489755  0.7409797704055514   T   T   T
  0.0000000000000000  0.7423617930792532  0.4999064264892433   T   T   T
  0.0000000000000000  0.8726391402808005  0.2531811620119309   T   T   T
  0.4999999999999998  0.8732754706380592  0.7438569000229417   T   T   T
  0.4999999999999998 -0.0029088567562361  0.4979845571013322   T   T   T
  0.4999999999999998  0.1271412545961882  0.2489654758915383   T   T   T
  0.4999999999999998  0.2415500534085702  0.0009432419590535   T   T   T
  0.4999999999999998  0.3746543269516578  0.7457601697143781   T   T   T
  0.4999999999999998  0.4972656825283434  0.5010114686773781   T   T   T
  0.4999999999999998  0.6349939070929808  0.2568655650056780   T   T   T
  0.4999999999999998  0.7584668219225178  0.0052868357968840   T   T   T
  0.0000000000000000  0.8641627530150152  0.7830340921267291   T   T   T
  0.4999999999999998  0.0673037968477417  0.8727301640189745   T   T   T
  0.4999999999999998  0.9281920745120966  0.6222908500605194   T   T   T
  0.0000000000000000  0.0003953154183391  0.4944981425094949   T   T   T
  0.4999999999999998  0.1887832525515072  0.6357553989085045   T   T   T
  0.4999999999999998  0.0584849146129541  0.3560176943686540   T   T   T
  0.4999999999999998  0.2945763094715945  0.3679876219373276   T   T   T
  0.4999999999999998  0.2023614201786942  0.1401699923516130   T   T   T
  0.0000000000000000  0.2991669052451931  0.0068009605397320   T   T   T
  0.0000000000000000  0.3579409360477844  0.7813762151790877   T   T   T
  0.4999999999999998  0.5592329970633517  0.8703095047269652   T   T   T
  0.4999999999999998  0.4280146323146921  0.6238171125850563   T   T   T
  0.0000000000000000  0.4943202870143171  0.4980438043768680   T   T   T
  0.4999999999999998  0.6884308580330532  0.6377139024602758   T   T   T
  0.4999999999999998  0.5570781224216990  0.3662092225422368   T   T   T
  0.0000000000000000  0.5855436138489002  0.2204784873270619   T   T   T
  0.4999999999999998  0.8089061586082210  0.3719285476284012   T   T   T
  0.4999999999999998  0.6882533351689341  0.1251021960363860   T   T   T
  0.0000000000000000  0.7697757071927789 -0.0222005497317113   T   T   T
  0.4999999999999998  0.9603922954265578  0.1221637577124960   T   T   T
