Sr Co O 
 1.0000000000000000
     3.9013616450007991    3.8810378686870544   -0.0015496028951574
     3.8895493847762119   -3.8695085912241978   -0.0140470263357390
     0.0249534474855733   -0.0241242171433684  -16.5719573284916919
 Sr  Co  O  
   8   8  20
Selective dynamics
Direct
 -0.0141498840713865 -0.0033787273090422  0.0184332249891268   T   T   T
  0.0140658823630219  0.0290170955068738  0.7394817358405367   T   T   T
 -0.0186691748866734 -0.0167992984635427  0.4815158945999148   T   T   T
 -0.0180526466067867 -0.0137444660390644  0.2536838690489015   T   T   T
  0.4883907975775653  0.4995763842561634  0.0240560946000869   T   T   T
  0.5194354204039988  0.4978861025119373  0.7283841887993204   T   T   T
  0.4797839269247430  0.4842078480184495  0.4805191467513057   T   T   T
  0.4820682263316628  0.4874456546764460  0.2551583839867826   T   T   T
  0.5143343469201681 -0.0759497558960309  0.8494289003323332   T   T   T
  0.5320332745734861  0.0199038212688640  0.6173003176947205   T   T   T
  0.4808910028242980 -0.0156684215427364  0.3719074293345124   T   T   T
  0.4834544858491380 -0.0085108077280552  0.1397797415987973   T   T   T
  0.0344505585704915  0.5980109283373138  0.8865896349680022   T   T   T
 -0.0082521231623954  0.4889945584215742  0.6026036615066974   T   T   T
 -0.0179738083725328  0.4859086716518746  0.3694318314984650   T   T   T
 -0.0167763682484599  0.4872814575752910  0.1328157997648159   T   T   T
  0.3160291012822524  0.8044861449022318  0.9274475791744502   T   T   T
  0.4661636634842863 -0.0236191028787934  0.7383709670695049   T   T   T
  0.2813973827253550  0.3330662171199998  0.6181363138415601   T   T   T
  0.4685298493109082 -0.0464815663362185  0.5107972027254556   T   T   T
  0.2455388211392482  0.7478513345608565  0.3713294995331680   T   T   T
  0.2202222456687408  0.2447927029733917  0.3758161754296807   T   T   T
  0.4790730729851997 -0.0005592426142534  0.2512010542910677   T   T   T
  0.2217004725280511  0.7287095667781290  0.1232258776893589   T   T   T
  0.2545536937909074  0.2216382745472882  0.1131479365666758   T   T   T
 -0.0470785491884487  0.4621842672591939 -0.0178331687324576   T   T   T
  0.8408350124864991  0.9029575418065481  0.8735212793263883   T   T   T
  0.0816638033887724  0.4779471289501067  0.7879579480351327   T   T   T
  0.7775559647553658  0.2550348190241513  0.6394267737902105   T   T   T
  0.8207621454962909  0.7590923328968273  0.6322347276674485   T   T   T
 -0.0187041085679717  0.5073640173976320  0.4923353869545713   T   T   T
  0.7170924961732559  0.2212694630052912  0.3782314742170180   T   T   T
  0.7429531045081594  0.7262274095335457  0.3681856120689765   T   T   T
 -0.0127017119456548  0.4749967635765406  0.2494949573801686   T   T   T
  0.7431231831956366  0.2483540115039692  0.1236918504765006   T   T   T
  0.7162568797216594  0.7605070805993519  0.1171906895521013   T   T   T
