Sr Co O 
 1.0000000000000000
     0.0000000000000000    7.5815130174769809    0.0000000000000000
     7.8437846745795197   -3.7907565087384905    0.0008413193782850
    -3.9227151038679393   -0.0000000000000000   -7.9029466111620037
 Sr  Co  O  
   8   8  20
Selective dynamics
Direct
 -0.0100390356070686  0.0012121817722267  0.0069994570189765   T   T   T
  0.8708403814592760  0.7431812780575860  0.5026124928805912   T   T   T
  0.7468009782391661  0.4983655772637610 -0.0055841947370212   T   T   T
  0.6341847862252165  0.2604242006739381  0.4942311849686137   T   T   T
  0.5112512173792957  0.0012121817722267  0.0069994570189765   T   T   T
  0.3723408965983103  0.7431812780575860  0.5026124928805912   T   T   T
  0.2515645990245954  0.4983655772637610 -0.0055841947370212   T   T   T
  0.1262394144487219  0.2604242006739381  0.4942311849686137   T   T   T
  0.3127748716211727  0.1255497432423457  0.7554805014611051   T   T   T
  0.1870537655666974  0.8741075311333947  0.2718877532535034   T   T   T
  0.0616841371435482  0.6233682742870967  0.7327451930856145   T   T   T
  0.9420247622891248  0.3840495245782489  0.2405157031651835   T   T   T
  0.8115566916383814  0.1231133832767634  0.7464966769994191   T   T   T
  0.6971004095494427  0.8942008190988848  0.2498461784421237   T   T   T
  0.5624749783558411  0.6249499567116821  0.7538235908194760   T   T   T
  0.4260464077366293  0.3520928154732582  0.2485307069195738   T   T   T
  0.3837081467220144  0.2674162934440283 -0.0131842031203028   T   T   T
  0.2032653757604863  0.9065307515209728  0.7845837359257307   T   T   T
  0.2422410621606287 -0.0155178756787424  0.5254756403038384   T   T   T
  0.0590508527457307  0.6181017054914614  0.2173800336485394   T   T   T
  0.9103679444942202  0.8492562521528737  0.2492509440661151   T   T   T
  0.9292012732022548  0.3584025464045089  0.7473120724971447   T   T   T
  0.8357583328720760  0.6373852022275137  0.7739278971783098   T   T   T
  0.0074859354069540  0.5149718708139084  0.4929253991077183   T   T   T
  0.8216660433861956  0.1433320867723906  0.2514791076949776   T   T   T
  0.6807258966653699  0.3961614748413861  0.2455976040071094   T   T   T
  0.8691747567743159  0.2383495135486312 -0.0208830332974989   T   T   T
  0.6961813635919830  0.8923627271839658  0.7519725655073346   T   T   T
  0.7506085321654556  0.0012170643309118  0.5136813677907071   T   T   T
  0.4388883076586542  0.8492562521528737  0.2492509440661151   T   T   T
  0.6183055033581012  0.7366110067162017 -0.0023966102076694   T   T   T
  0.4223294336554343  0.3446588673108685  0.7309423174492298   T   T   T
  0.3016268693554379  0.6373852022275137  0.7739278971783098   T   T   T
  0.5040187651738530  0.5080375303477057  0.5072472813333472   T   T   T
  0.2935608077783952  0.0871216155567900  0.2300673979060214   T   T   T
  0.2154355781760164  0.3961614748413861  0.2455976040071094   T   T   T
