Sr Co O 
 1.0000000000000000
    -7.7743404016710329   -0.0000000000000000    0.0000000000000000
    -0.0000000000000000   -7.9704131136709497    0.0000000000000000
     3.8871702008355165   -0.0000000000000000    7.7316310363108283
 Sr  Co  O  
   8   8  20
Selective dynamics
Direct
  0.0108398302217538  0.0017270859479870  0.0000000000000000   T   T   T
  0.2591665941308891  0.0208145600738396  0.4994022996435254   T   T   T
  0.4916786872500673  0.0087042189827350 -0.0000000000000000   T   T   T
  0.7597642944873635  0.0208145600738396  0.5005977003564740   T   T   T
  0.0108398302217538  0.4982729140520125  0.0000000000000000   T   T   T
  0.2591665941308891  0.4791854399261598  0.4994022996435254   T   T   T
  0.4916786872500671  0.4912957810172641  0.0000000000000000   T   T   T
  0.7597642944873635  0.4791854399261598  0.5005977003564741   T   T   T
  0.9153775818907622  0.7499999999999990  0.2824421132758458   T   T   T
  0.1092967875295202  0.7499999999999990  0.7511109998860508   T   T   T
  0.3581857876434705  0.7499999999999990  0.2488890001139485   T   T   T
  0.6329354686149141  0.7499999999999990  0.7175578867241539   T   T   T
  0.8842157507966596  0.2499999999999996  0.2634935479509480   T   T   T
  0.1349016668693102  0.2499999999999996  0.7569023723302646   T   T   T
  0.3779992945390471  0.2499999999999996  0.2430976276697355   T   T   T
  0.6207222028457106  0.2499999999999996  0.7365064520490509   T   T   T
  0.0838436991283123  0.7499999999999990  0.1907590088683343   T   T   T
  0.8525095494933346 -0.0256609995905447  0.2319902936236821   T   T   T
 -0.0888015285219458  0.7499999999999990  0.4919679871446004   T   T   T
  0.1427682853504681 -0.0229861402257737  0.7403468910645089   T   T   T
  0.3135255338210409  0.7499999999999990  0.0000000000000000   T   T   T
  0.4024213942859597 -0.0229861402257737  0.2596531089354900   T   T   T
  0.4192304843334533  0.7499999999999990  0.5080320128553989   T   T   T
  0.8930846902599773  0.7499999999999990  0.8092409911316650   T   T   T
  0.6205192558696504 -0.0256609995905447  0.7680097063763177   T   T   T
  0.0985016724667285  0.2499999999999996  0.2290292407941620   T   T   T
  0.8525095494933346  0.5256609995905432  0.2319902936236821   T   T   T
  0.0075327708332076  0.2499999999999996  0.5130998805086069   T   T   T
  0.4069193142642538  0.2499999999999996  0.7709301822129924   T   T   T
  0.1427682853504682  0.5229861402257732  0.7403468910645088   T   T   T
  0.2532985597369572  0.2499999999999996  0.0000000000000000   T   T   T
  0.6359891320512624  0.2499999999999996  0.2290698177870072   T   T   T
  0.4024213942859599  0.5229861402257732  0.2596531089354900   T   T   T
  0.4944328903246003  0.2499999999999996  0.4869001194913918   T   T   T
  0.8694724316725655  0.2499999999999996  0.7709707592058370   T   T   T
  0.6205192558696504  0.5256609995905432  0.7680097063763177   T   T   T
