Sr Co O 
 1.0000000000000000
     0.0000000000000001    7.9191978940652845   -0.0256597015026634
     7.6462796591922038    0.0000000000000001   -0.0000000000000000
    -3.8231398295961019   -3.9341500691711420   -7.7846305907039399
 Sr  Co  O  
   8   8  20
Selective dynamics
Direct
  0.0251486214457005  0.0057240104462591  0.0207340394097537   T   T   T
  0.7579919313881797  0.7303304084203339  0.4922565773371935   T   T   T
  0.4856189461640107  0.4932452281247926 -0.0042632942469174   T   T   T
  0.2235583138546021  0.2547118144354862  0.4938378297619458   T   T   T
  0.4856189461640107  0.0024914776282897 -0.0042632942469174   T   T   T
  0.2235583138546021  0.7391260153264592  0.4938378297619458   T   T   T
  0.0251486214457005  0.5150100289634943  0.0207340394097537   T   T   T
  0.7579919313881797  0.2619261689168595  0.4922565773371935   T   T   T
  0.1312274463697037  0.1244380005604316  0.7488760011208637   T   T   T
  0.8822735888657363  0.8728502148268731  0.2457004296537480   T   T   T
  0.6189554574096503  0.6249104264740154  0.7498208529480317   T   T   T
  0.3834691558855206  0.3774521179793168  0.2549042359586340   T   T   T
  0.6125718905483543  0.1211999290048444  0.7423998580096894   T   T   T
  0.3760062804824408  0.8804365230440836  0.2608730460881687   T   T   T
  0.1196255708265599  0.6275169748726495  0.7550339497452999   T   T   T
  0.8707899427538250  0.3694410801704560  0.2388821603409117   T   T   T
  0.2439272775170566  0.2538311091309575  0.0076622182619149   T   T   T
  0.0990153975111964  0.8919650535263300  0.7542000265189105   T   T   T
 -0.0328595088149460 -0.0016305403030137  0.4967389193939731   T   T   T
  0.8519124989926415  0.6339628048774805  0.2386121722735359   T   T   T
  0.7104752909219938  0.7425687460532067 -0.0148625078935850   T   T   T
  0.3785726105030001  0.6156541564653102  0.7313083129306209   T   T   T
  0.5172930786193995  0.5051783634267519  0.5103567268535043   T   T   T
  0.4054420565649573  0.1124648049687651  0.2578251330209859   T   T   T
  0.1213850986535443  0.3811714054350357  0.2623428108700718   T   T   T
  0.7781670451680589  0.2314537188070188 -0.0370925623859626   T   T   T
  0.3796978792033857  0.1197638852933390  0.7395277705866785   T   T   T
  0.5756272772443241  0.0130508882678078  0.5261017765356162   T   T   T
  0.4054420565649573  0.6453603280522207  0.2578251330209859   T   T   T
  0.1362342135940415  0.8825858335435951  0.2651716670871919   T   T   T
  0.2639169903175902  0.7483272723208041 -0.0033454553583900   T   T   T
  0.0990153975111964  0.3622349729925792  0.7542000265189105   T   T   T
  0.8583280698477068  0.6355148524927390  0.7710297049854791   T   T   T
 -0.0036032292464883  0.5061630839815363  0.5123261679630731   T   T   T
  0.8519124989926415  0.1046493673960552  0.2386121722735359   T   T   T
  0.6305429155577141  0.3649194196469566  0.2298388392939131   T   T   T
