Sr Co O 
 1.0000000000000000
    -3.9909096457422049    0.0025011897440945   -3.8625876480665826
    -4.0045339217860496   -7.9318972807526196    3.8760052423561566
    -4.0059577244649152    7.9257525464222720    3.8692018841147688
 Sr  Co  O  
   8   8  20
Selective dynamics
Direct
  0.0312000526546951 -0.0048702971872831 -0.0064890654214856   T   T   T
  0.5036039031098748  0.2653769259600025  0.2443170477275016   T   T   T
 -0.0254293159696961  0.4927490894074600  0.4750959887124744   T   T   T
  0.5054917085068746  0.7424097589341527  0.7365038126651279   T   T   T
  0.5050327494564125  0.0075672123912647  0.5066590957964102   T   T   T
  0.0040348685139840  0.2286424346336800  0.7567365662203578   T   T   T
  0.4990308403992919  0.4752909425715027 -0.0070336410366044   T   T   T
 -0.0034872808134446  0.7267858999177053  0.2384692858533958   T   T   T
  0.4883997602130827  0.8807486539083452  0.1622456882569989   T   T   T
 -0.0215389301967717  0.1111805084226420  0.3586509420819420   T   T   T
  0.5015841838255554  0.3724832844903683  0.6224934347596949   T   T   T
  0.0000665086161818  0.5764457036896942  0.8227858698787185   T   T   T
 -0.0136977500455492  0.8782790211813735  0.6302064548349141   T   T   T
  0.5145914318656750  0.1264803163425352  0.8670244767828840   T   T   T
  0.0040381224587573  0.3637431769308667  0.1186919216727165   T   T   T
  0.5001711122811149  0.6109848733162733  0.3576491962315069   T   T   T
  0.8011361442761831  0.9459185364830081  0.1935933610050983   T   T   T
  0.3040737183553058  0.0462805352439985  0.2767959509491092   T   T   T
 -0.0084735306024075  0.2479303103847061  0.2651983711180714   T   T   T
  0.6869899519512725  0.2436658738191833  0.4777671892875602   T   T   T
  0.6744680681000121  0.5179352559453204  0.7709043144917203   T   T   T
  0.4757408022246700  0.5220865428414349  0.4953661727442328   T   T   T
  0.1730622673179037  0.4174491549645092  0.6665227517818705   T   T   T
  0.3505826458495273  0.7881128823431189 -0.0048290145251983   T   T   T
  0.0155623540296755  0.7239170729404436  0.7486596423280363   T   T   T
  0.2550176547542435 -0.0318031488164962  0.7246411274587838   T   T   T
 -0.0006183117488625  0.0250016584268979  0.5031995574850545   T   T   T
  0.7386581056599190 -0.0206777304003492  0.7842482648466454   T   T   T
  0.7656733730991984  0.2416693781554044  0.0004834196190692   T   T   T
  0.4979528450909816  0.2375418752372271  0.7385420577897733   T   T   T
  0.2689563920936300  0.2178181284501432 -0.0023005476893001   T   T   T
  0.2355006574550242  0.4917255809057479  0.2400912425029017   T   T   T
  0.0301036826736258  0.5099027154053029 -0.0243638950907459   T   T   T
  0.7474460544053133  0.5041339644964333  0.2248276377969655   T   T   T
  0.8056074982572530  0.7506177370187224  0.4925949071265787   T   T   T
  0.4394669395786366  0.7664753990780740  0.2940500689685155   T   T   T
