Sr Co O 
 1.0000000000000000
    -3.9748474005664240   -0.0121798832093273   -3.9122612040174709
    -0.0121798832093281   -3.9748474005664298   -3.9122612040174705
   -11.8973618531006267  -11.8973618531006622    7.7601526079989513
 Sr  Co  O  
   8   8  20
Selective dynamics
Direct
  0.0008781456974889  0.0008781456974889 -0.0154335308152514   T   T   T
  0.6113401977383742  0.6113401977383766  0.1359475775753410   T   T   T
  0.2516861278505654  0.2516861278505651  0.2703877292758598   T   T   T
  0.8728178647726278  0.8728178647726271  0.3906813805205069   T   T   T
  0.5012973799264532  0.5012973799264570  0.5048393220831571   T   T   T
  0.1263063947648454  0.1263063947648451  0.6217863463430731   T   T   T
  0.7545527746595073  0.7545527746595043  0.7414289471068009   T   T   T
  0.3787102916029543  0.3787102916029563  0.8641416889655437   T   T   T
  0.6904729455291905  0.6904729455291986  0.9328334180888070   T   T   T
  0.2543078074149980  0.2543078074149993  0.0439454317034581   T   T   T
  0.9551199211909968  0.9551199211909982  0.2050537485407762   T   T   T
  0.5608363354084506  0.5608363354084511  0.3197651562000270   T   T   T
  0.1916555006194661  0.1916555006194613  0.4433686066495011   T   T   T
  0.8140228151856194  0.8140228151856204  0.5657926721782337   T   T   T
  0.4378580815021171  0.4378580815021140  0.6864988374764258   T   T   T
  0.0777259317154626  0.0777259317154687  0.8036805916095824   T   T   T
  0.0055190233384307  0.5561086472416022 -0.0097277546027231   T   T   T
  0.5561086472416026  0.0055190233384298 -0.0097277546027228   T   T   T
  0.0832941557330224  0.0832941557330239  0.1112265427263244   T   T   T
  0.2720916778846760  0.7287888353591776  0.2496509421325128   T   T   T
  0.7287888353591757  0.2720916778846768  0.2496509421325130   T   T   T
  0.7680210285401687  0.7680210285401696  0.2132477164759478   T   T   T
  0.8767161133361487  0.3973819941684406  0.3701127075938945   T   T   T
  0.3973819941684409  0.8767161133361501  0.3701127075938946   T   T   T
  0.3711561117386435  0.3711561117386419  0.3843006297291440   T   T   T
  0.5096669446042242 -0.0106895684544956  0.5068106193768723   T   T   T
 -0.0106895684544941  0.5096669446042241  0.5068106193768717   T   T   T
  0.0125611657493614  0.0125611657493644  0.4952562475005349   T   T   T
  0.1194031834925198  0.6372227125473915  0.6242030610794723   T   T   T
  0.6372227125473958  0.1194031834925157  0.6242030610794732   T   T   T
  0.6172297473556096  0.6172297473556093  0.6366095363465997   T   T   T
  0.7455064586408472  0.2176306200325334  0.7623656727776232   T   T   T
  0.2176306200325366  0.7455064586408434  0.7623656727776225   T   T   T
  0.2561362065544205  0.2561362065544210  0.7473013431884031   T   T   T
  0.3714114256144382  0.8602550274928852  0.8827547921391961   T   T   T
  0.8602550274928817  0.3714114256144413  0.8827547921391964   T   T   T
