Sr Co O 
 1.0000000000000000
    -3.6390064606272237    0.0000000000000000    0.0000000000000000
     0.0000000000000000    4.1649114728904131    3.9311299406593951
     0.0000000000000000   16.7576832784198011  -15.8247463930343262
 Sr  Co  O  
   8   8  20
Selective dynamics
Direct
 -0.0000000000000000 -0.0402500845757041  0.0042376236939002   T   T   T
 -0.0000000000000000  0.4409021427849009  0.8800018772075163   T   T   T
 -0.0000000000000000 -0.0686152780344805  0.7421572996660198   T   T   T
 -0.0000000000000000  0.4736227637120717  0.6236655567344014   T   T   T
 -0.0000000000000000  0.0007000455529374  0.4974271685211064   T   T   T
 -0.0000000000000000  0.5279425955557419  0.3793156592789630   T   T   T
 -0.0000000000000000  0.0559377202092155  0.2625537259915787   T   T   T
 -0.0000000000000000  0.5675218448806237  0.1378414316816589   T   T   T
  0.5000000000000002  0.4957073473497051 -0.0016626552272616   T   T   T
  0.5000000000000002 -0.0725559121493152  0.8673620334494104   T   T   T
  0.5000000000000002  0.4409368173674070  0.7572676489482355   T   T   T
  0.5000000000000002 -0.0263887565416194  0.6164276285229071   T   T   T
  0.5000000000000002  0.5005728476322244  0.5004825516297879   T   T   T
  0.5000000000000002  0.0274089560309485  0.3794651130376076   T   T   T
  0.5000000000000002  0.5544855697394093  0.2575804068422561   T   T   T
  0.5000000000000002  0.0735096885216747  0.1377725566619117   T   T   T
  0.5000000000000002  0.2300720760238064 -0.0407157840951316   T   T   T
  0.5000000000000002  0.7299627797980504  0.9334711463287836   T   T   T
  0.5000000000000002  0.6747066702430323  0.8135555638800056   T   T   T
  0.5000000000000002  0.2099538881922057  0.8251534372930482   T   T   T
  0.5000000000000002  0.2149764043251791  0.7080938908014971   T   T   T
  0.5000000000000002  0.6643421381920228  0.6995535290203259   T   T   T
 -0.0000000000000000 -0.0300845611896156  0.6340862887462889   T   T   T
  0.5000000000000002  0.7329101743485643  0.5667100102140560   T   T   T
  0.5000000000000002  0.2445747816500020  0.5691837513659886   T   T   T
 -0.0000000000000000  0.4999435833086736  0.5046842224526413   T   T   T
  0.5000000000000002  0.2624377267932239  0.4423159544992976   T   T   T
  0.5000000000000002  0.7633409390184560  0.4410014128651721   T   T   T
 -0.0000000000000000  0.0290669277045381  0.3788198587038313   T   T   T
  0.5000000000000002  0.7940674729707241  0.3153027563857553   T   T   T
  0.5000000000000002  0.2930089716751775  0.3161241228287248   T   T   T
 -0.0000000000000000  0.5563583986784025  0.2519101236010464   T   T   T
  0.5000000000000002  0.3164853879326516  0.1877084731773595   T   T   T
  0.5000000000000002  0.8179654040157571  0.1874380165026065   T   T   T
 -0.0000000000000000  0.1112346422894400  0.1031329352426287   T   T   T
  0.5000000000000002  0.6832380186397730  0.0580748243675775   T   T   T
