Sr Co O 
 1.0000000000000000
     3.7845108184580996    0.0000000000000000    0.0000000000000000
     0.0000000000000000    3.9267752831975833    0.0000000000000000
     0.0000000000000000    0.0000000000000000   23.6282170932832010
 Sr  Co  O  
   6   6  13
Selective dynamics
Direct
  0.0000000000000000  0.0000000000000000 -0.0019774429048773   T   T   T
  0.0000000000000000  0.0000000000000000  0.1503063633242217   T   T   T
  0.0000000000000000  0.0000000000000000  0.3409364871498740   T   T   T
  0.0000000000000000  0.0000000000000000  0.5112796065094077   T   T   T
  0.0000000000000000  0.0000000000000000  0.6676634966211318   T   T   T
  0.0000000000000000  0.0000000000000000  0.8324946065913822   T   T   T
  0.4999999999999998  0.5000000000000002  0.0827492479263684   T   T   T
  0.4999999999999998  0.5000000000000002  0.2524829632836759   T   T   T
  0.4999999999999998  0.5000000000000002  0.4166524441084535   T   T   T
  0.4999999999999998  0.5000000000000002  0.5816607218895933   T   T   T
  0.4999999999999998  0.5000000000000002  0.7515068422307964   T   T   T
  0.4999999999999998  0.5000000000000002  0.9147332683604056   T   T   T
  0.0000000000000000  0.5000000000000002  0.0754491882580642   T   T   T
  0.4999999999999998  0.0000000000000000  0.0769830883550471   T   T   T
  0.4999999999999998  0.5000000000000002  0.1782112495008305   T   T   T
  0.4999999999999998  0.5000000000000002  0.3287154392989514   T   T   T
  0.4999999999999998  0.0000000000000000  0.4119794244781595   T   T   T
  0.4999999999999998  0.5000000000000002  0.4943455847925823   T   T   T
  0.0000000000000000  0.5000000000000002  0.5928869208576052   T   T   T
  0.4999999999999998  0.0000000000000000  0.5905270838347154   T   T   T
  0.0000000000000000  0.5000000000000002  0.7359593539778762   T   T   T
  0.4999999999999998  0.0000000000000000  0.7411901895313714   T   T   T
  0.4999999999999998  0.5000000000000002  0.8332512996826230   T   T   T
  0.0000000000000000  0.5000000000000002  0.9311611735425952   T   T   T
  0.4999999999999998  0.0000000000000000  0.9255180567494392   T   T   T
