Sr Co O 
 1.0000000000000000
    -3.8349392642090554    4.1278507484398643    3.8142511874908496
     3.8360801352954788   -0.0275878865491569    7.6581303059493271
     3.8003629764850859    8.2406798586599823   -0.0112983952927757
 Sr  Co  O  
   8   8  20
Selective dynamics
Direct
 -0.0209125725647733  0.0040361408984787 -0.0004147921467765   T   T   T
  0.2508954480550284  0.3813018344124747  0.8520620964329549   T   T   T
  0.4814877587538247  0.7604134625173131  0.7327560037357882   T   T   T
  0.7664064297411044  0.1383390832372987  0.6109835357447790   T   T   T
 -0.0072758284969078  0.5072418613879781  0.5064199781997848   T   T   T
  0.2451679543936067  0.8616199162196266  0.3929468364572991   T   T   T
  0.5145287736965619  0.2436400489476947  0.2706362145675160   T   T   T
  0.7557902634784899  0.6154000860555301  0.1476257821361746   T   T   T
  0.0084775066549119  0.2463709316904400  0.2598216040308169   T   T   T
  0.2192422859950771  0.5975131849397005  0.1430410168405194   T   T   T
  0.5009838730567689  0.0213367466814186 -0.0045442545196229   T   T   T
  0.7635460166320843  0.3833259754328143  0.8676780865434706   T   T   T
 -0.0111643196417147  0.7532039827989709  0.7392485827222615   T   T   T
  0.2488320260128473  0.1295767659721835  0.6165346156386495   T   T   T
  0.5051924520490562  0.5000237522103699  0.5025563414994748   T   T   T
  0.7500159115461507  0.8731414342038512  0.3838537079598884   T   T   T
  0.8967734668117344  0.0659353930558106  0.2841215189389993   T   T   T
  0.8418784176303955  0.3314200690817291  0.0471312925366555   T   T   T
  0.2050001719986284  0.3736190929803236  0.1427241141606284   T   T   T
  0.1733923025785602  0.6726945593467165  0.9560198913134900   T   T   T
  0.3491889538305125  0.0362239265647650  0.8662502191037406   T   T   T
  0.6544121104005872  0.1710622942684867  0.9101493612471602   T   T   T
  0.0222624010317242  0.2750206925955011  0.7278131944389826   T   T   T
  0.6208037959109373  0.4556206956105627  0.7189568449191983   T   T   T
  0.8034313686186312  0.6257127481660887  0.8569989506721805   T   T   T
  0.2322447440556451  0.6118084653596496  0.6244015499872174   T   T   T
  0.8595335301939824  0.8261236434263171  0.5718000783190604   T   T   T
  0.0891315569284915  0.9378833817285709  0.7130351004173003   T   T   T
  0.4963433535862598 -0.0010635299256657  0.5049052591992811   T   T   T
  0.1455007324926411  0.1697512703720198  0.4240104421369342   T   T   T
  0.4178017558551577  0.3044101841450066  0.5580963407674883   T   T   T
  0.7782503129466670  0.3929908964590997  0.3755036938742932   T   T   T
  0.3853456201095277  0.5586908936423702  0.2742730637963534   T   T   T
  0.6034900406297851  0.6911468329287751  0.4434735816942137   T   T   T
 -0.0015465240575676  0.7475479212566729  0.2535784660157331   T   T   T
  0.5805478855555937  0.9244153652246317  0.1630519660526462   T   T   T
