Sr Co O 
 1.0000000000000000
    -3.6424460237640730    0.0000000000000000    0.0000000000000000
     0.0000000000000000   -8.1228152705603396    0.0289462075670428
     0.0000000000000000    4.0328279933925009    7.9913021618301254
 Sr  Co  O  
   4   4   9
Selective dynamics
Direct
 -0.0000000000000000  0.0039109462882173 -0.0203268946752428   T   T   T
 -0.0000000000000000  0.2596573358982899  0.5060323767693916   T   T   T
 -0.0000000000000000  0.4898874163968907  0.0048556027531612   T   T   T
 -0.0000000000000000  0.7315731790503396  0.4996761773234581   T   T   T
  0.4999999999999999  0.8760927958060449  0.2693403835973791   T   T   T
  0.4999999999999999  0.1259388058525181  0.7451449467814525   T   T   T
  0.4999999999999999  0.3815481176066292  0.2487660877521449   T   T   T
  0.4999999999999999  0.6136979989369084  0.7457293370199575   T   T   T
 -0.0000000000000000  0.9169911065766255  0.2156941983674830   T   T   T
  0.4999999999999999  0.0313424124417696  0.5144810322769169   T   T   T
  0.4999999999999999  0.3625870104833292  0.7631791738630818   T   T   T
  0.4999999999999999  0.2262613260161555 -0.0225867811806174   T   T   T
 -0.0000000000000000  0.3165963397421613  0.2422887312648744   T   T   T
  0.4999999999999999  0.6219439570073233  0.2359487430766810   T   T   T
  0.4999999999999999  0.4929693574063151  0.4995853916922847   T   T   T
 -0.0000000000000000  0.6568915527900863  0.8178965368126935   T   T   T
  0.4999999999999999  0.8921102794406293  0.7342949200988611   T   T   T
