Sr Co O 
 1.0000000000000000
     4.0675394851398368   -0.0000000000000000    3.9239710648199275
     0.0000000000000000   -7.6913401184829322    0.0000000000000000
     8.1715645575163087    0.0000000000000000   -7.8820383135782910
 Sr  Co  O  
   8   8  20
Selective dynamics
Direct
 -0.0481916276066357 -0.0034138585576633  0.0062799449840881   T   T   T
  0.5481916276066355 -0.0034138585576633  0.7437200550159125   T   T   T
 -0.0009036764628136  0.0044476407185650  0.4848054038113822   T   T   T
  0.5009036764628151  0.0044476407185650  0.2651945961886195   T   T   T
 -0.0481916276066357  0.5034138585576634  0.0062799449840881   T   T   T
  0.5481916276066355  0.5034138585576634  0.7437200550159125   T   T   T
 -0.0009036764628136  0.4955523592814348  0.4848054038113822   T   T   T
  0.5009036764628151  0.4955523592814348  0.2651945961886195   T   T   T
  0.4884712472487155  0.7499999999999998 -0.0172167050689970   T   T   T
  0.0115287527512855  0.7499999999999998  0.7672167050689969   T   T   T
  0.4991152745650732  0.7499999999999998  0.4870901815862642   T   T   T
  0.0008847254349273  0.7499999999999998  0.2629098184137366   T   T   T
  0.4710135369288479  0.2499999999999998  0.0246749831275811   T   T   T
  0.0289864630711524  0.2499999999999998  0.7253250168724193   T   T   T
  0.5067213886775868  0.2499999999999998  0.5038270454447127   T   T   T
 -0.0067213886775864  0.2499999999999998  0.2461729545552881   T   T   T
  0.2500000000000002  0.7499999999999998  0.8750000000000007   T   T   T
  0.4969293570701553  0.0329657381414490 -0.0350239096405036   T   T   T
  0.7500000000000008  0.7499999999999998  0.8750000000000010   T   T   T
  0.8658092582032746  0.7499999999999998  0.6288554157338041   T   T   T
  0.0030706429298445  0.0329657381414490  0.7850239096405034   T   T   T
  0.2500000000000005  0.7499999999999998  0.3750000000000004   T   T   T
  0.4792877145454321 -0.0233191608994817  0.5217548606736455   T   T   T
  0.7500000000000002  0.7499999999999998  0.3750000000000009   T   T   T
  0.6341907417967255  0.7499999999999998  0.1211445842661975   T   T   T
  0.0207122854545679 -0.0233191608994817  0.2282451393263552   T   T   T
  0.1797729867108709  0.2499999999999998  0.0987973400928653   T   T   T
  0.4969293570701553  0.4670342618585505 -0.0350239096405036   T   T   T
  0.7839919722158014  0.2499999999999998  0.6198521423440440   T   T   T
  0.0030706429298445  0.4670342618585505  0.7850239096405034   T   T   T
  0.3202270132891293  0.2499999999999998  0.6512026599071356   T   T   T
  0.2500000000000005  0.2499999999999998  0.3750000000000004   T   T   T
  0.4792877145454321  0.5233191608994814  0.5217548606736454   T   T   T
  0.7500000000000002  0.2499999999999998  0.3750000000000009   T   T   T
  0.7160080277841988  0.2499999999999998  0.1301478576559579   T   T   T
  0.0207122854545679  0.5233191608994814  0.2282451393263552   T   T   T
