Sr Co O 
 1.0000000000000000
     3.7385700842843823    0.0000000000000000    0.0000000000000000
     0.0000000000000000    3.8152944521656385    0.0000000000000000
     0.0000000000000000    0.0000000000000000   24.3499209731269630
 Sr  Co  O  
   6   6  13
Selective dynamics
Direct
  0.0000000000000000  0.0000000000000000 -0.0038089496763463   T   T   T
  0.0000000000000000  0.0000000000000000  0.1734612244669454   T   T   T
  0.0000000000000000  0.0000000000000000  0.3346003477726318   T   T   T
  0.0000000000000000  0.0000000000000000  0.4968478075325745   T   T   T
  0.0000000000000000  0.0000000000000000  0.6707811457800800   T   T   T
  0.0000000000000000  0.0000000000000000  0.8276770365154030   T   T   T
  0.4999999999999997  0.4999999999999997  0.0913529993651698   T   T   T
  0.4999999999999997  0.4999999999999997  0.2534805260335695   T   T   T
  0.4999999999999997  0.4999999999999997  0.4145081846758674   T   T   T
  0.4999999999999997  0.4999999999999997  0.5765086334424649   T   T   T
  0.4999999999999997  0.4999999999999997  0.7518802006812890   T   T   T
  0.4999999999999997  0.4999999999999997  0.9153610432633158   T   T   T
  0.4999999999999997  0.0000000000000000  0.0761294761413950   T   T   T
  0.4999999999999997  0.4999999999999997  0.1713829315236044   T   T   T
  0.0000000000000000  0.4999999999999997  0.2515473731737980   T   T   T
  0.4999999999999997  0.4999999999999997  0.3330400790666195   T   T   T
  0.4999999999999997  0.0000000000000000  0.4127979085211673   T   T   T
  0.4999999999999997  0.4999999999999997  0.4943237474371426   T   T   T
  0.4999999999999997  0.0000000000000000  0.5725404580841024   T   T   T
  0.4999999999999997  0.4999999999999997  0.6505088301319213   T   T   T
  0.0000000000000000  0.4999999999999997  0.7465566197919310   T   T   T
  0.4999999999999997  0.0000000000000000  0.7477170061491710   T   T   T
  0.4999999999999997  0.4999999999999997  0.8377829086062909   T   T   T
  0.0000000000000000  0.4999999999999997  0.9397289531137663   T   T   T
  0.4999999999999997  0.0000000000000000  0.9299601892533027   T   T   T
