Sr Co O 
 1.0000000000000000
    -3.9093856125801860   -0.0000000000000000   -3.9093856125801860
    -0.0000000000000000   -7.5544467077844084   -0.0000000000000000
    -7.8552256887860903    3.7772233538922042    7.8552256887860921
 Sr  Co  O  
   8   8  20
Selective dynamics
Direct
  0.0000000000000000 -0.0061051076886226 -0.0122102153772452   T   T   T
  0.4999999999999993  0.1275566102387154  0.2551132204774308   T   T   T
 -0.0000000000000010  0.2502352733113503  0.5004705466227010   T   T   T
  0.4999999999999993  0.3743230474151783  0.7486460948303572   T   T   T
 -0.0000000000000000  0.5005711030459588  0.0011422060919187   T   T   T
  0.4999999999999993  0.6299015171800150  0.2598030343600307   T   T   T
 -0.0000000000000009  0.7522872156762102  0.5045744313524214   T   T   T
  0.4999999999999987  0.8698655527934216  0.7397311055868444   T   T   T
  0.4999999999999994  0.7387882456479303 -0.0002542806182788   T   T   T
 -0.0000000000000002  0.8809940182865527  0.2442492088363296   T   T   T
  0.4999999999999993  0.0030529190663290  0.5005608575185984   T   T   T
 -0.0000000000000016  0.1182923822613445  0.7501244776437739   T   T   T
  0.4999999999999994  0.2609574737337901 -0.0002542806182788   T   T   T
 -0.0000000000000003  0.3632551905497758  0.2442492088363296   T   T   T
  0.4999999999999991  0.4975079384522695  0.5005608575185985   T   T   T
 -0.0000000000000016  0.6318320953824281  0.7501244776437739   T   T   T
  0.7522051628381374  0.6805417262396877  0.8768879940484777   T   T   T
  0.7615173039076325  0.8474933116422368  0.1270377330932539   T   T   T
  0.2384826960923664  0.8474933116422365  0.1270377330932535   T   T   T
  0.2319151396599306  0.9173099029149692  0.3612619308152206   T   T   T
  0.7680848603400678  0.9173099029149694  0.3612619308152209   T   T   T
  0.7609649861640904  0.0932226224540249  0.6322312728615097   T   T   T
  0.4999999999999986  0.2422010148554441  0.4844020297108884   T   T   T
  0.2390350138359074  0.0932226224540245  0.6322312728615096   T   T   T
  0.2477948371618599  0.1963462678087895  0.8768879940484779   T   T   T
  0.7522051628381374  0.1963462678087896  0.8768879940484777   T   T   T
  0.7615173039076325  0.2795444214510160  0.1270377330932539   T   T   T
  0.4999999999999998  0.5175450043776316  0.0350900087552642   T   T   T
  0.2384826960923663  0.2795444214510158  0.1270377330932535   T   T   T
  0.2319151396599306  0.4439520279002504  0.3612619308152206   T   T   T
  0.7680848603400678  0.4439520279002504  0.3612619308152209   T   T   T
  0.7609649861640904  0.5390086504074849  0.6322312728615098   T   T   T
  0.4999999999999984  0.7550321311249755  0.5100642622499523   T   T   T
  0.2390350138359074  0.5390086504074845  0.6322312728615096   T   T   T
  0.2477948371618599  0.6805417262396877  0.8768879940484779   T   T   T
 -0.0000000000000018  0.8720685110961982  0.7441370221923982   T   T   T
