Sr Co O 
 1.0000000000000000
    -3.9246590724720312    4.0067769004688456    3.8280414271017951
     3.8175531741208735   -0.0557208274904459    7.6041740434531446
     3.9219350110640123    8.1140572444647940   -0.1027499079460828
 Sr  Co  O  
   8   8  20
Selective dynamics
Direct
  0.0064035180349405 -0.0303297102013636  0.0143854821369338   T   T   T
  0.2771400476966100  0.3798583869238825  0.8713806677158784   T   T   T
  0.5055277639880863  0.7811019482697772  0.7190910758763163   T   T   T
  0.7482478384273801  0.1258416617183612  0.6016340088312876   T   T   T
 -0.0042639748062146  0.5187280633265556  0.4924116505831336   T   T   T
  0.2413042957225009  0.8772387055155096  0.3799275503678520   T   T   T
  0.4726012721501339  0.2366212981202784  0.2762643977832483   T   T   T
  0.7442241673584321  0.6194554745269063  0.1452329892260246   T   T   T
 -0.0095644890494447  0.2417694759268008  0.2637885311101938   T   T   T
  0.2460532590791190  0.6007654928495489  0.1331485361185747   T   T   T
  0.5059707123894526 -0.0095471321187969 -0.0018356284875149   T   T   T
  0.7219829661098707  0.4380161709227048  0.8579968507111609   T   T   T
  0.0059406209794835  0.7575158781431743  0.7476334054112342   T   T   T
  0.2504317176762602  0.1312194859431618  0.6198852278389648   T   T   T
  0.4903210904060979  0.5072731263914363  0.4990848335710049   T   T   T
  0.7513223913834416  0.8736469978849565  0.3696694943881584   T   T   T
  0.8615668904945376  0.0697163275266636  0.2929238363777077   T   T   T
  0.2533412078505325  0.0939890128867418  0.1120621607365477   T   T   T
  0.0866584515442404  0.4216811691600102  0.1591009217530120   T   T   T
  0.5271069302870591  0.4312197073150776  0.0332701430167847   T   T   T
  0.2140388805035965  0.6946300346710572  0.9416273975321288   T   T   T
  0.7404516302229764  0.8446468144476673  0.8971152562871008   T   T   T
  0.4214115404045266  0.0707848757790605  0.8179756131609760   T   T   T
  0.6473717158305191  0.4180707160781239  0.6891860907773548   T   T   T
  0.9381490703444501  0.5289028418363674  0.8206113260684937   T   T   T
  0.2643411356830470  0.6523250000571630  0.6201240949360800   T   T   T
  0.8798069601679025  0.8204913230288041  0.5603191449571232   T   T   T
  0.0854872162621018  0.9876655945575796  0.7195070564126796   T   T   T
  0.4918664850318480  0.0020235687678446  0.4958984567668380   T   T   T
  0.1056100142373943  0.1985887459373102  0.4449876096734120   T   T   T
  0.3266244288734486  0.3269344587117588  0.5842040799267553   T   T   T
  0.7138925784754661  0.3698244981034285  0.3720912306453803   T   T   T
  0.3583404566264375  0.5764225725388488  0.3001598679883184   T   T   T
  0.6389764695904183  0.6872658501061596  0.4284297926509316   T   T   T
  0.0064887647635184  0.7517942096156018  0.2362566280010120   T   T   T
  0.6098258531046281  0.9413473992986721  0.1719503807944461   T   T   T
