Sr Co O 
 1.0000000000000000
    -3.6781680769186949   -0.0000000000000000   -0.0000000000000000
     0.0000000000000000    7.9023653855955143    7.9709770799164401
    -0.0000000000000000    7.9023653855955143   -7.9709770799164401
 Sr  Co  O  
   8   8  20
Selective dynamics
Direct
  0.0000000000000000 -0.0016000241968053  0.0023382717962314   T   T   T
 -0.0000000000000000  0.2383317634094286  0.7533991836873315   T   T   T
 -0.0000000000000000  0.5033991836873298  0.4883317634094303   T   T   T
  0.0000000000000000  0.7523382717962311  0.2483999758031951   T   T   T
  0.0000000000000000  0.4973680614778200  0.0013311884719837   T   T   T
 -0.0000000000000000  0.7513311884719831  0.7473680614778218   T   T   T
 -0.0000000000000000  0.0076530114967415  0.5023007818230846   T   T   T
  0.0000000000000000  0.2523007818230834  0.2576530114967422   T   T   T
  0.5000000000000001  0.2487391760192743  0.0007771023471618   T   T   T
  0.5000000000000001  0.5039640604343637  0.7539640604343659   T   T   T
  0.5000000000000001  0.7507771023471612  0.4987391760192756   T   T   T
  0.5000000000000001  0.0005237620880453  0.2505237620880461   T   T   T
  0.5000000000000001  0.7487337110112474 -0.0012662889887519   T   T   T
  0.5000000000000001 -0.0024673928317142  0.7506691683313973   T   T   T
  0.5000000000000001  0.2469366080121521  0.4969366080121535   T   T   T
  0.5000000000000001  0.5006691683313960  0.2475326071682872   T   T   T
  0.5000000000000001  0.1362273132615724  0.1178849353143491   T   T   T
  0.5000000000000001  0.1292518837966196  0.8879426225902222   T   T   T
  0.5000000000000001  0.3611862953531192  0.8798705930632567   T   T   T
 -0.0000000000000000  0.4780036308012919  0.7280036308012939   T   T   T
  0.5000000000000001  0.6298705930632545  0.6111862953531212   T   T   T
  0.5000000000000001  0.6379426225902211  0.3792518837966213   T   T   T
  0.5000000000000001  0.8678849353143484  0.3862273132615735   T   T   T
 -0.0000000000000000 -0.0030160530636648  0.2469839469363359   T   T   T
  0.5000000000000001  0.8648747896242436  0.1148747896242445   T   T   T
  0.5000000000000001  0.6330251512912406  0.1122318876731426   T   T   T
  0.5000000000000001  0.6310707082498866  0.8810707082498891   T   T   T
  0.5000000000000001  0.8622318876731415  0.8830251512912423   T   T   T
  0.0000000000000000 -0.0056445224477571  0.7530082662825941   T   T   T
  0.5000000000000001  0.8634594739678438  0.6173498330090896   T   T   T
  0.5000000000000001  0.1352215543767626  0.6272175860380403   T   T   T
 -0.0000000000000000  0.2794300102148520  0.5294300102148535   T   T   T
  0.5000000000000001  0.1274056526934849  0.3774056526934860   T   T   T
  0.5000000000000001  0.3772175860380392  0.3852215543767640   T   T   T
 -0.0000000000000000  0.5030082662825927  0.2443554775522440   T   T   T
  0.5000000000000001  0.3673498330090890  0.1134594739678455   T   T   T
