Sr Co O 
 1.0000000000000000
     3.7175758371801266    0.0000000000000000    0.0000000000000000
     0.0000000000000000    3.8963331769403835    0.0000000000000000
     0.0000000000000000    0.0000000000000000   24.2887490279990388
 Sr  Co  O  
   6   6  13
Selective dynamics
Direct
  0.0000000000000000  0.0000000000000000 -0.0045559769684647   T   T   T
  0.0000000000000000  0.0000000000000000  0.1689675665480383   T   T   T
  0.0000000000000000  0.0000000000000000  0.3403356270012832   T   T   T
  0.0000000000000000  0.0000000000000000  0.4945649150827500   T   T   T
  0.0000000000000000  0.0000000000000000  0.6713443368273342   T   T   T
  0.0000000000000000  0.0000000000000000  0.8276555636159095   T   T   T
  0.4999999999999996  0.4999999999999998  0.0883305926521442   T   T   T
  0.4999999999999996  0.4999999999999998  0.2502168711689198   T   T   T
  0.4999999999999996  0.4999999999999998  0.4186383027385575   T   T   T
  0.4999999999999996  0.4999999999999998  0.5791908390578676   T   T   T
  0.4999999999999996  0.4999999999999998  0.7516242919325850   T   T   T
  0.4999999999999996  0.4999999999999998  0.9149344365330965   T   T   T
  0.4999999999999996  0.0000000000000000  0.0770050550841667   T   T   T
  0.4999999999999996  0.4999999999999998  0.1691235570899343   T   T   T
  0.4999999999999996  0.0000000000000000  0.2615964040212056   T   T   T
  0.0000000000000000  0.4999999999999998  0.3971737567260585   T   T   T
  0.4999999999999996  0.0000000000000000  0.4108249543494578   T   T   T
  0.4999999999999996  0.4999999999999998  0.5026964682065669   T   T   T
  0.4999999999999996  0.0000000000000000  0.5762480713024182   T   T   T
  0.4999999999999996  0.4999999999999998  0.6524130975969104   T   T   T
  0.0000000000000000  0.4999999999999998  0.7464704712721112   T   T   T
  0.4999999999999996  0.0000000000000000  0.7484726329007049   T   T   T
  0.4999999999999996  0.4999999999999998  0.8376871874251295   T   T   T
  0.0000000000000000  0.4999999999999998  0.9413947915319729   T   T   T
  0.4999999999999996  0.0000000000000000  0.9276462501235068   T   T   T
