Sr Co O 
 1.0000000000000000
     3.7391561163223588    0.0000000000000000    0.0000000000000000
     0.0000000000000000    7.7923599619041184    0.0000000000000000
     0.0000000000000000    0.0000000000000000   16.2029369240647974
 Sr  Co  O  
   8   8  20
Selective dynamics
Direct
 -0.0000000000000000  0.0189597950498674 -0.0135381299407169   T   T   T
 -0.0000000000000000  0.0072020526858729  0.2661528867783761   T   T   T
 -0.0000000000000000 -0.0107443522957207  0.4985561406669257   T   T   T
  0.0000000000000000 -0.0069739924381733  0.7510422766005116   T   T   T
 -0.0000000000000000  0.4810402049501326 -0.0135381299407169   T   T   T
  0.0000000000000000  0.4927979473141265  0.2661528867783761   T   T   T
 -0.0000000000000000  0.5107443522957202  0.4985561406669257   T   T   T
 -0.0000000000000000  0.5069739924381731  0.7510422766005116   T   T   T
  0.4999999999999997  0.2499999999999998  0.1262163884689791   T   T   T
  0.4999999999999997  0.2499999999999998  0.3826553880531123   T   T   T
  0.4999999999999997  0.2499999999999998  0.6259178397224336   T   T   T
  0.4999999999999997  0.2499999999999998  0.8675615818189104   T   T   T
  0.4999999999999997  0.7500000000000000  0.1263876885601018   T   T   T
  0.4999999999999997  0.7500000000000000  0.3773798330349232   T   T   T
  0.4999999999999997  0.7500000000000000  0.6241471425629603   T   T   T
  0.4999999999999997  0.7500000000000000  0.8663315637277149   T   T   T
  0.4999999999999997  0.2499999999999998  0.0110027213723658   T   T   T
  0.0000000000000000  0.2499999999999998  0.1242263511494955   T   T   T
  0.4999999999999997  0.2499999999999998  0.2389637884936055   T   T   T
  0.0000000000000000  0.2499999999999998  0.3793381936872095   T   T   T
  0.4999999999999997  0.0035384792482943  0.3759427358246509   T   T   T
  0.4999999999999997  0.2499999999999998  0.5141415702827424   T   T   T
  0.4999999999999997  0.0184299368849889  0.6278077000504869   T   T   T
  0.4999999999999997  0.2499999999999998  0.7398641563992047   T   T   T
  0.0000000000000000  0.2499999999999998  0.8696460121692392   T   T   T
  0.4999999999999997 -0.0088528173542975  0.8820498239524683   T   T   T
  0.0000000000000000  0.7500000000000000  0.0889045192205131   T   T   T
  0.4999999999999997  0.7500000000000000  0.2394863741721569   T   T   T
  0.0000000000000000  0.7500000000000000  0.3731303432452776   T   T   T
  0.4999999999999997  0.4964615207517057  0.3759427358246509   T   T   T
  0.4999999999999997  0.7500000000000000  0.5028941502540001   T   T   T
  0.0000000000000000  0.7500000000000000  0.6275346623895262   T   T   T
  0.4999999999999997  0.4815700631150107  0.6278077000504871   T   T   T
  0.4999999999999997  0.7500000000000000  0.7504640342075029   T   T   T
  0.0000000000000000  0.7500000000000000  0.8927787124195043   T   T   T
  0.4999999999999997  0.5088528173542974  0.8820498239524682   T   T   T
