Sr Co O 
 1.0000000000000000
    -0.0000000000000000    7.7609743422259019   -0.0000000000000000
     8.0102681215903342   -0.0000000000000000   -0.0044869329147310
    -4.0015710726395124   -3.8804871711129514   -7.7200741774719059
 Sr  Co  O  
   8   8  20
Selective dynamics
Direct
  0.0068275554933415  0.0032814858379342  0.0207251766199418   T   T   T
  0.7307788760200937  0.7358346016941634  0.4712198482405107   T   T   T
  0.4951247521361808  0.5010011828266930 -0.0083033770143791   T   T   T
  0.2561671621175225  0.2616963042195119  0.4958528428529562   T   T   T
  0.5138976211266002  0.0032814858379342  0.0207251766199418   T   T   T
  0.2404409722204174  0.7358346016941634  0.4712198482405107   T   T   T
 -0.0034281291505594  0.5010011828266930 -0.0083033770143791   T   T   T
  0.7396856807354336  0.2616963042195119  0.4958528428529562   T   T   T
  0.1184093356322053  0.1337113676191838  0.7368186712644117   T   T   T
  0.8840351261927498  0.8811357267521893  0.2680702523854984   T   T   T
  0.6196608856885842  0.6498145639641963  0.7393217713771687   T   T   T
  0.3746310374786501  0.3774184659791293  0.2492620749573002   T   T   T
  0.6196412371815853  0.1103253221519216  0.7392824743631708   T   T   T
  0.3698828246184167  0.8714939140430454  0.2397656492368330   T   T   T
  0.1276177728631185  0.6206731412581882  0.7552355457262387   T   T   T
  0.8810532559319493  0.3876130832270934  0.2621065118638973   T   T   T
  0.9316060182389224  0.1278762786249515  0.8022749101312280   T   T   T
  0.0055194125767890 -0.0557750605530390  0.5110388251535792   T   T   T
  0.8525163561261805  0.6000428929339604  0.2050327122523598   T   T   T
  0.6320693820642631  0.8627362981536010  0.2316684702486077   T   T   T
  0.6345175973617124  0.3484648571637305  0.7690351947234255   T   T   T
  0.4090554552285158  0.6432884423553384  0.7757626587886786   T   T   T
  0.4992227329813844  0.5014422274025299  0.4984454659627691   T   T   T
  0.3684133383866274  0.1402449429060637  0.2368266767732543   T   T   T
  0.0989536391305029  0.3634999843069384  0.2252314880201339   T   T   T
  0.6507773337630204  0.9188775964658911  0.8015546675260418   T   T   T
  0.3706688918923061  0.1278762786249515  0.8022749101312280   T   T   T
  0.4941609474442626 -0.0206824119905672  0.4883218948885256   T   T   T
  0.3547579165669979  0.5844991799025231  0.2095158331339954   T   T   T
  0.0995990881843448  0.8627362981536010  0.2316684702486076   T   T   T
  0.2446172925603200  0.7702685617026673 -0.0107654148793604   T   T   T
  0.1182470839957866  0.3692306098643877  0.7364941679915746   T   T   T
  0.8667072035601624  0.6432884423553384  0.7757626587886786   T   T   T
  0.0126274438775201  0.5569238862522375  0.5252548877550413   T   T   T
  0.8802591251465338  0.1308478828230578  0.2605182502930662   T   T   T
  0.6262778488896310  0.3634999843069384  0.2252314880201339   T   T   T
