Sr Co O 
 1.0000000000000000
     3.8700822733840163   -0.0032682303871383    3.9031922397424395
    -0.0015221465406602   -7.9958306349674890    0.0005934623756741
     7.6768748070005435   -0.0105681750633335   -7.7260083521107425
 Sr  Co  O  
   8   8  20
Selective dynamics
Direct
 -0.0312361040376107  0.0003726851095620 -0.0034765052664982   T   T   T
  0.4887506996669937  0.0161671457617942  0.7539369515236480   T   T   T
  0.0059162522637914  0.0126817337399120  0.4945150644364995   T   T   T
  0.5065975979464378  0.0001861689511379  0.2450714131134114   T   T   T
 -0.0316269112475657  0.4858489681895001 -0.0034282234660426   T   T   T
  0.4884341365114442  0.4702358859200224  0.7539388541226892   T   T   T
  0.0054336747596472  0.4731868400102551  0.4941833957314604   T   T   T
  0.5062296580464811  0.4858303924304648  0.2448327192080141   T   T   T
  0.4871593870999929  0.7432537254276652  0.0089545749892941   T   T   T
 -0.0569711058559551  0.7431349392301743  0.7594443262168754   T   T   T
  0.5146647206141203  0.7428995298834128  0.4685670945042395   T   T   T
  0.0081214372160421  0.7431810751363752  0.2392343055396791   T   T   T
  0.4964654449540686  0.2431362299934614 -0.0092370928905565   T   T   T
 -0.0031784080202817  0.2431530388400881  0.7468290274325420   T   T   T
  0.4978628307069861  0.2430471363992945  0.5041346116938041   T   T   T
 -0.0142127805708078  0.2428852759148815  0.2551830320440046   T   T   T
  0.1852849004588220  0.7429415374818705  0.0782598001811316   T   T   T
  0.4656994257988695 -0.0046548943202412  0.0010921463976397   T   T   T
  0.6568334073056947  0.7431731378602574  0.8548624034989102   T   T   T
  1.0188247320126362  0.9592344945710576  0.7398210516006651   T   T   T
  0.2927213086349276  0.7428173343069279  0.3344493663144769   T   T   T
  0.4915115407545854 -0.0449212711839730  0.5217504932557546   T   T   T
  0.8293857513836240  0.7433923721841048  0.3979542591609165   T   T   T
  0.7243997858662772  0.7432664587146761  0.1415994886947466   T   T   T
  0.0272768575785782  0.0210620726431956  0.2296670348414986   T   T   T
  0.2221390668783613  0.2435063259298353  0.8908976879129741   T   T   T
  0.4663388125220487  0.4907761891917420  0.0013071465858054   T   T   T
  0.7426082887547099  0.2433099699965627  0.8631446510318762   T   T   T
  0.7518485468952267  0.2429126411330769  0.6209094484481236   T   T   T
  0.0185121239823525  0.5271094901937862  0.7394129273566067   T   T   T
  0.2517207981883094  0.2432058213626236  0.6297734611922096   T   T   T
  0.2642384864706278  0.2430338282912475  0.3747876132606944   T   T   T
  0.4921261728339092  0.5304888873542968  0.5215685301938981   T   T   T
  0.7431673141343378  0.2424827394210349  0.3801099269433325   T   T   T
  0.7108112664613837  0.2427502437704337  0.1211696420127248   T   T   T
  0.0261409838014302  0.4649117959048139  0.2297790507876451   T   T   T
