Sr Co O 
 1.0000000000000000
     3.7726094632024547    0.0000000000000000    0.0000000000000000
     0.0000000000000000    3.8671636928146174    0.0000000000000000
     0.0000000000000000    0.0000000000000000   24.1575212672049098
 Sr  Co  O  
   6   6  13
Selective dynamics
Direct
  0.0000000000000000  0.0000000000000000 -0.0049576341974570   T   T   T
  0.0000000000000000  0.0000000000000000  0.1614287992956322   T   T   T
  0.0000000000000000  0.0000000000000000  0.3339006387824311   T   T   T
  0.0000000000000000  0.0000000000000000  0.5084872312538805   T   T   T
  0.0000000000000000  0.0000000000000000  0.6721304182375323   T   T   T
  0.0000000000000000  0.0000000000000000  0.8288082459674385   T   T   T
  0.5000000000000004  0.4999999999999994  0.0851843217591105   T   T   T
  0.5000000000000004  0.4999999999999994  0.2474340102021572   T   T   T
  0.5000000000000004  0.4999999999999994  0.4106903210514196   T   T   T
  0.5000000000000004  0.4999999999999994  0.5909847760141775   T   T   T
  0.5000000000000004  0.4999999999999994  0.7516159814636900   T   T   T
  0.5000000000000004  0.4999999999999994  0.9147170417084909   T   T   T
  0.0000000000000000  0.4999999999999994  0.0850288321209384   T   T   T
  0.0000000000000000  0.4999999999999994  0.2281989807857255   T   T   T
  0.5000000000000004  0.4999999999999994  0.3277108183701067   T   T   T
  0.5000000000000004  0.0000000000000000  0.4047651478501224   T   T   T
  0.5000000000000004  0.4999999999999994  0.4840755577616541   T   T   T
  0.0000000000000000  0.4999999999999994  0.5802604182869840   T   T   T
  0.5000000000000004  0.0000000000000000  0.5821131556198877   T   T   T
  0.5000000000000004  0.4999999999999994  0.6722856685638744   T   T   T
  0.0000000000000000  0.4999999999999994  0.7556155100205819   T   T   T
  0.5000000000000004  0.0000000000000000  0.7548642029375155   T   T   T
  0.5000000000000004  0.4999999999999994  0.8378575435407121   T   T   T
  0.0000000000000000  0.4999999999999994  0.9360317323893013   T   T   T
  0.5000000000000004  0.0000000000000000  0.9341015964025959   T   T   T
