Sr Co O 
 1.0000000000000000
     3.9197562034615783   -4.0637616783264408   -0.0592651278129537
    -3.7619897639131672    0.0355228158258843   -7.5640184586529760
     7.9295165563311567    8.2162009064986723   -0.2289864308487227
 Sr  Co  O  
   8   8  20
Selective dynamics
Direct
 -0.0192871106827052  0.0316370576969020  0.0072913001648036   T   T   T
  0.7499572942505086  0.4882201550378301  0.8690142023255439   T   T   T
  0.4952677746026644 -0.0260168982836861  0.7254189304336756   T   T   T
  0.2571854418097673  0.4886321350477622  0.6064283406525615   T   T   T
 -0.0019659674344817 -0.0072243448133998  0.4922784604023970   T   T   T
  0.7603554159992005  0.5178178468691537  0.3819121854614295   T   T   T
  0.5153100868854180  0.0289972959075611  0.2766613901862494   T   T   T
  0.2395345188392611  0.5348526425427783  0.1419409843018436   T   T   T
  0.8336743535889655  0.7443968945345747  0.1769694886192266   T   T   T
  0.5978810990512654  0.2598070745115723  0.0910982074671478   T   T   T
  0.3864632310885575  0.8005230712989154  0.9591000920244058   T   T   T
  0.1083627161198792  0.2154770602847334  0.7897509789265684   T   T   T
  0.8793512181299342  0.7400509512432643  0.6656743435837422   T   T   T
  0.6365017697234635  0.2521510000271129  0.5654950884086506   T   T   T
  0.3821772793744799  0.7616284985206501  0.4342034468390845   T   T   T
  0.1423584183776821  0.2782782262790437  0.3209233233864402   T   T   T
  0.6422327380765743  0.8309450968519576  0.0927142893674985   T   T   T
  0.0888279344581860  0.7500142027914685  0.0187645579268259   T   T   T
  0.6569191340715138  0.4859142981153279  0.0870407210648036   T   T   T
  0.4932355769668130  0.0514268399686769  0.9603767376399633   T   T   T
  1.0426752505007899  0.3183821712876339  0.9373259705143808   T   T   T
  0.4752489685023062  0.6922900554454180  0.8183630062253249   T   T   T
  0.8588182118047419  0.2123929829963625  0.6747657722853321   T   T   T
  0.3824706462794974  0.2517431979177475  0.7109468859120701   T   T   T
 -0.0040875577729065 -0.0390698004685293  0.7774993554238139   T   T   T
  0.6163356439343429  0.7407219846418638  0.5613174990323718   T   T   T
  0.1275241340171124  0.7517704041445112  0.5571773089465943   T   T   T
  0.8102968557364627  0.5116875320967393  0.6536826048734692   T   T   T
  0.4205913422331179  0.2855587070816643  0.4451333703739436   T   T   T
  0.9093403801458841  0.2348060932983503  0.4264418458302411   T   T   T
  0.4745719163019363  0.0010234627059353  0.4940020598471922   T   T   T
  0.1110892988699049  0.7865392631120027  0.2826542933465219   T   T   T
  0.6401066160880682  0.7695290037677883  0.3186732322763899   T   T   T
  0.2354086292481251  0.5256749061693061  0.3624670705778527   T   T   T
  0.8597443658750699  0.2605066319667164  0.1913818764644226   T   T   T
  0.3205220843947543  0.2189143984875761  0.1876106351127556   T   T   T
