Sr Co O 
 1.0000000000000000
    -3.6930666932476206    0.0000000000000000    0.0000000000000000
     0.0000000000000000    4.0112184236633857    7.9758851956696377
     0.0000000000000000   11.9683099653922440   -7.9431507321748995
 Sr  Co  O  
   8   8  21
Selective dynamics
Direct
 -0.0000000000000000 -0.0098950068142551 -0.0010242138693614   T   T   T
 -0.0000000000000000  0.3769056669137267  0.8763208567695296   T   T   T
 -0.0000000000000000  0.7619952638908909  0.7602705885513662   T   T   T
 -0.0000000000000000  0.1016170896474310  0.6284215018201458   T   T   T
 -0.0000000000000000  0.5045300990383719  0.4832162458533918   T   T   T
 -0.0000000000000000  0.8681199298706663  0.3698383607440393   T   T   T
 -0.0000000000000000  0.2500726688107567  0.2532957406949207   T   T   T
 -0.0000000000000000  0.6397656159720074  0.1272955403563725   T   T   T
  0.5000000000000000  0.3142086637611408  0.0621111516016766   T   T   T
  0.5000000000000000  0.6892437250049100  0.9396499190182918   T   T   T
  0.5000000000000000  0.0623149994760472  0.8136433447435942   T   T   T
  0.5000000000000000  0.4325021809530809  0.6981166397015199   T   T   T
  0.5000000000000000  0.8196847613554792  0.5584043838591051   T   T   T
  0.5000000000000000  0.1793844596919733  0.4315189920413993   T   T   T
  0.5000000000000000  0.5621329320826706  0.3078442834923773   T   T   T
  0.5000000000000000  0.9389436634745622  0.1865480541137186   T   T   T
  0.5000000000000000  0.1431399352427400  0.1179632531003322   T   T   T
  0.5000000000000000  0.2055572208771017  0.9456858196218819   T   T   T
  0.5000000000000000  0.4850777251544657  0.0041257586720078   T   T   T
 -0.0000000000000000  0.6775246542405464  0.9383629286435187   T   T   T
  0.5000000000000000  0.5680740043971340  0.8053759139463028   T   T   T
  0.5000000000000000  0.8807975260874239  0.8786758299256661   T   T   T
 -0.0000000000000000  0.0710343875498515  0.8146034351263580   T   T   T
  0.5000000000000000  0.9157176518712374  0.6848234086683387   T   T   T
  0.5000000000000000  0.2418294745343377  0.7343610893818807   T   T   T
 -0.0000000000000000  0.4532475372437283  0.6538222186842773   T   T   T
 -0.0000000000000000  0.7763902114547738  0.5754634593886079   T   T   T
  0.5000000000000000  0.6884053399037511  0.4450807943681594   T   T   T
  0.5000000000000000  0.0085697765276366  0.5044679325269315   T   T   T
 -0.0000000000000000  0.2114130448531646  0.4680108911907271   T   T   T
  0.5000000000000000  0.0657644855870760  0.3150666539933705   T   T   T
  0.5000000000000000  0.3699721648351388  0.3813124737793218   T   T   T
 -0.0000000000000000  0.5554896258288657  0.3071961259151664   T   T   T
  0.5000000000000000  0.4260899785893909  0.1763253198896073   T   T   T
  0.5000000000000000  0.7514637371640791  0.2520401026599388   T   T   T
 -0.0000000000000000  0.9500609552604805  0.1877146945797950   T   T   T
  0.5000000000000000  0.8128539140087548  0.0640506370300920   T   T   T
