Sr Co O 
 1.0000000000000000
    -3.7127738222963109    0.0000000000000000    0.0000000000000000
     0.0000000000000000    4.0246411541415279    7.8683891222849951
     0.0000000000000000   12.0304139357646847   -7.8468226966168464
 Sr  Co  O  
   8   8  20
Selective dynamics
Direct
 -0.0000000000000000  0.0034714698678280  0.0077398281308897   T   T   T
 -0.0000000000000000  0.3879265079914253  0.8798170416201865   T   T   T
 -0.0000000000000000  0.7379480402050587  0.7387855893792831   T   T   T
 -0.0000000000000000  0.0906572525487828  0.6256700442808559   T   T   T
 -0.0000000000000000  0.5097371343642394  0.4853844470032102   T   T   T
 -0.0000000000000000  0.8681056428357955  0.3674660559117981   T   T   T
 -0.0000000000000000  0.2513130727741720  0.2572772966663674   T   T   T
 -0.0000000000000000  0.6408023631900228  0.1267988787009035   T   T   T
  0.5000000000000002  0.3153872782873090  0.0628413790715548   T   T   T
  0.5000000000000002  0.6897717871481711  0.9360416965708435   T   T   T
  0.5000000000000002  0.0667303598524526  0.8218579631270516   T   T   T
  0.5000000000000002  0.4446425196504972  0.6928957815779613   T   T   T
  0.5000000000000002  0.8014403129569230  0.5541740770630483   T   T   T
  0.5000000000000002  0.1797983144993603  0.4358576616209012   T   T   T
  0.5000000000000002  0.5626534770344017  0.3062248226378857   T   T   T
  0.5000000000000002  0.9424455777832703  0.1863296950802758   T   T   T
  0.5000000000000002  0.1395583947612840  0.1178633386666105   T   T   T
  0.5000000000000002  0.1960394007286241  0.9399186698436512   T   T   T
  0.5000000000000002  0.4876913211091788  0.0018513898421627   T   T   T
 -0.0000000000000000  0.7319667080982406  0.9160859967531477   T   T   T
  0.5000000000000002  0.5598758211784542  0.8153988783098222   T   T   T
 -0.0000000000000000  0.0802317755294022  0.8218086077832930   T   T   T
  0.5000000000000002  0.9346150266409516  0.7137171243652208   T   T   T
 -0.0000000000000000  0.3682373102097707  0.6942824288188150   T   T   T
  0.5000000000000002  0.5954064161285820  0.6122911485892589   T   T   T
 -0.0000000000000000  0.8060527863913106  0.5659454336848559   T   T   T
  0.5000000000000002  0.6951886580648261  0.4285037132172733   T   T   T
  0.5000000000000002  0.0160574665400015  0.5127725989460408   T   T   T
 -0.0000000000000000  0.2172857206667640  0.4714668789280878   T   T   T
  0.5000000000000002  0.0629495856678920  0.3186700836563251   T   T   T
  0.5000000000000002  0.3673503861005665  0.3818046168161453   T   T   T
 -0.0000000000000000  0.5543103483729455  0.3041431787742113   T   T   T
  0.5000000000000002  0.4259131527030586  0.1759786131002290   T   T   T
  0.5000000000000002  0.7491819329526858  0.2397959128933325   T   T   T
 -0.0000000000000000  0.9491076527653101  0.1845323784251178   T   T   T
  0.5000000000000002  0.8201491072900626  0.0480068233798953   T   T   T
