Sr Co O 
 1.0000000000000000
    -3.8759760578166440   -0.0000000000000002   -3.8759760578166444
    -3.8970188146707700    3.8538898325448026    7.7729948724874136
     3.8782069440605813    7.6723326392305937   -3.8782069440605818
 Sr  Co  O  
   8   8  20
Selective dynamics
Direct
 -0.0081427587466976 -0.0162855174933952 -0.0002746543829486   T   T   T
  0.6229182708622919  0.2458365417245849  0.8717907808982351   T   T   T
  0.2520817291377072  0.5041634582754155  0.7532092191017645   T   T   T
  0.8831427587466963  0.7662855174933957  0.6252746543829486   T   T   T
  0.5061606299726420  0.0123212599452852  0.4877693441340720   T   T   T
  0.1239676165930464  0.2479352331860932  0.3640760144443458   T   T   T
  0.7510323834069524  0.5020647668139071  0.2609239855556538   T   T   T
  0.3688393700273571  0.7376787400547152  0.1372306558659276   T   T   T
  0.5639420988059110  0.1278841976118238  0.1857295676803585   T   T   T
  0.1858820750833501  0.3717641501667009  0.0627849556790074   T   T   T
  0.8121364417979789  0.6242728835959601  0.9500654009003232   T   T   T
  0.4374999999999993  0.8750000000000003  0.8125000000000001   T   T   T
  0.0628635582020206  0.1257271164040413  0.6749345990996775   T   T   T
  0.6891179249166491  0.3782358498332993  0.5622150443209915   T   T   T
  0.3110579011940880  0.6221158023881768  0.4392704323196412   T   T   T
  0.9374999999999991  0.8750000000000003  0.3124999999999998   T   T   T
  0.7308061902704762 -0.0094196860666237  0.2235062355575972   T   T   T
  0.8655486394309170  0.2258115025878677  0.0928711430159646   T   T   T
  0.3602628631569493  0.2258115025878679  0.0928711430159649   T   T   T
  0.4877927093946341  0.4807759084831216 -0.0230877080479370   T   T   T
 -0.0070168009115134  0.4807759084831214 -0.0230877080479366   T   T   T
  0.1334324699733301  0.7493991748840075  0.8644776016347061   T   T   T
  0.6159667049106766  0.7493991748840078  0.8644776016347061   T   T   T
  0.7415675300266692  0.0006008251159933  0.7605223983652943   T   T   T
  0.2590332950893230  0.0006008251159935  0.7605223983652942   T   T   T
  0.3872072906053654  0.2692240915168793  0.6480877080479368   T   T   T
  0.0071186994563380  0.0142373989126764  0.4825209889507984   T   T   T
  0.8820168009115121  0.2692240915168787  0.6480877080479361   T   T   T
  0.0094513605690820  0.5241884974121329  0.5321288569840354   T   T   T
  0.6304741462264387  0.2609482924528794  0.3700758270513967   T   T   T
  0.5147371368430496  0.5241884974121324  0.5321288569840346   T   T   T
  0.6152258763371005  0.7594196860666237  0.4014937644424017   T   T   T
  0.2445258537735598  0.4890517075471207  0.2549241729486030   T   T   T
  0.1441938097295221  0.7594196860666238  0.4014937644424021   T   T   T
  0.2597741236628987 -0.0094196860666236  0.2235062355575975   T   T   T
  0.8678813005436612  0.7357626010873241  0.1424790110492008   T   T   T
