Sr Co O 
 1.0000000000000000
     3.9406932687439622   -3.9529757851636322   -0.0208257232063216
    -3.9021469774234578   -0.0034865217073753   -7.9970010364623558
     7.7966162499689560    7.8218878646473931    0.0073457981794708
 Sr  Co  O  
   8   8  20
Selective dynamics
Direct
  0.0186128976937353  0.0320349037572317  0.0198248721229220   T   T   T
  0.7196597184369572  0.4671430110875763  0.8666553560621175   T   T   T
  0.5183643129372155  0.0246632815600059  0.7572349090051502   T   T   T
  0.2458199696129132  0.4729306133146110  0.6300254284058746   T   T   T
  0.0124864065977002  0.0297046002358257  0.5079730694275048   T   T   T
  0.7494893989990993  0.4839471797190264  0.3829237854664031   T   T   T
  0.5393383506857485  0.0273954313932921  0.2685084428818165   T   T   T
  0.2399946339256197  0.4772190594345620  0.1223082535319909   T   T   T
  0.9095694263144071  0.7781780750314489  0.1861579446632624   T   T   T
  0.6212982295391354  0.2268948825227448  0.0653754262225847   T   T   T
  0.3140292095963824  0.7485907496900374  0.9371262108736372   T   T   T
  0.1197903267529133  0.2429472131567060  0.8199411776897295   T   T   T
  0.9365572126579103  0.7552427511379295  0.6927696231860421   T   T   T
  0.6294986284436768  0.2529410332166144  0.5706742474413841   T   T   T
  0.3030058148966223  0.7418963728286823  0.4262275250996039   T   T   T
  0.1485990006590317  0.2628873658168220  0.3245321284225414   T   T   T
  0.0413369186109227  0.0088389434641796  0.2575648122211075   T   T   T
 -0.0034845521354450  0.7402743175869620  0.0159866980236509   T   T   T
  0.3667818327021290  0.2384528750685545  0.9397991387891722   T   T   T
  0.8653899201549344  0.2673017247780276  0.9558580497735535   T   T   T
  0.5200436668386080 -0.0350748643334626  0.0173699118667771   T   T   T
  0.2503303984727457  0.7542796524781042  0.7677607691184556   T   T   T
  0.3043267183771512  0.5330252456276640  0.8973762734219013   T   T   T
  0.8809896932775589  0.2537722968845937  0.6987706455336269   T   T   T
  0.3690013896465695  0.2317472020191834  0.6854298053138543   T   T   T
 -0.0648620364024559 -0.0329539579050013  0.7701349580027392   T   T   T
  0.0222510248808118  0.7621027453716435  0.5282889053072791   T   T   T
  0.7317126332070993  0.5408715185422981  0.6588928389512451   T   T   T
  0.3864500923934650  0.2532258729514242  0.4440372230147695   T   T   T
  0.8809161651651312  0.2643717649551060  0.4538611098735746   T   T   T
  0.5145508343614951 -0.0455053137722211  0.4875453475526869   T   T   T
  0.0660281791250765  0.6818054485425566  0.2717311663967596   T   T   T
  0.5860437601502204  0.7354993992172012  0.2075409876607012   T   T   T
  0.3087138347238323  0.5334453627656165  0.4071305756643033   T   T   T
  0.9039783966123671  0.2640809906960401  0.2023901649646665   T   T   T
  0.4183875943269984  0.2758223053459072  0.1917721738892563   T   T   T
