Sr Co O 
 1.0000000000000000
     3.6471787797695083    0.0000000000000000    0.0000000000000000
     0.0000000000000000    3.8943717962758666    0.0000000000000000
     0.0000000000000000    0.0000000000000000   24.3636121304280699
 Sr  Co  O  
   6   6  12
Selective dynamics
Direct
  0.0000000000000000  0.0000000000000000 -0.0024335635426231   T   T   T
  0.0000000000000000  0.0000000000000000  0.1706405228283951   T   T   T
  0.0000000000000000  0.0000000000000000  0.3276428968229499   T   T   T
  0.0000000000000000  0.0000000000000000  0.4996026006152845   T   T   T
  0.0000000000000000  0.0000000000000000  0.6718197574384240   T   T   T
  0.0000000000000000  0.0000000000000000  0.8296008425564422   T   T   T
  0.5000000000000004  0.4999999999999996  0.0910971479501687   T   T   T
  0.5000000000000004  0.4999999999999996  0.2518514134577445   T   T   T
  0.5000000000000004  0.4999999999999996  0.4117491568158881   T   T   T
  0.5000000000000004  0.4999999999999996  0.5769894556813483   T   T   T
  0.5000000000000004  0.4999999999999996  0.7531544117119856   T   T   T
  0.5000000000000004  0.4999999999999996  0.9162470427505707   T   T   T
  0.5000000000000004  0.0000000000000000  0.0782861740562334   T   T   T
  0.5000000000000004  0.4999999999999996  0.1717801070329077   T   T   T
  0.5000000000000004  0.0000000000000000  0.2526858194781317   T   T   T
  0.5000000000000004  0.4999999999999996  0.3370379853417454   T   T   T
  0.5000000000000004  0.4999999999999996  0.4856755507645510   T   T   T
  0.5000000000000004  0.0000000000000000  0.5694860431349761   T   T   T
  0.5000000000000004  0.4999999999999996  0.6510085074804544   T   T   T
  0.0000000000000000  0.4999999999999996  0.7465481074394290   T   T   T
  0.5000000000000004  0.0000000000000000  0.7492240521757199   T   T   T
  0.5000000000000004  0.4999999999999996  0.8386409696426056   T   T   T
  0.0000000000000000  0.4999999999999996  0.9444754761793522   T   T   T
  0.5000000000000004  0.0000000000000000  0.9271895399644762   T   T   T
