Sr Co O 
 1.0000000000000000
    -3.6620499416362069    0.0000000000000000    0.0000000000000000
     0.0000000000000000    4.1427379329859111    3.8915839117498718
     0.0000000000000000   16.5912211492347090  -15.5934202057672504
 Sr  Co  O  
   8   8  20
Selective dynamics
Direct
 -0.0000000000000000  0.0250032969928502  0.0017369786115118   T   T   T
 -0.0000000000000000  0.5583449813935267  0.8787246168755631   T   T   T
 -0.0000000000000000 -0.0452968749744370  0.7389853388290213   T   T   T
 -0.0000000000000000  0.4774524053619925  0.6240650244410552   T   T   T
 -0.0000000000000000 -0.0439467107515139  0.4950857939738740   T   T   T
 -0.0000000000000000  0.4838512513047223  0.3719209084583005   T   T   T
 -0.0000000000000000  0.0191098982026561  0.2540715201900964   T   T   T
 -0.0000000000000000  0.5426910943587671  0.1309728597634723   T   T   T
  0.5000000000000003  0.5606873633469487  0.0038967356057092   T   T   T
  0.5000000000000003  0.0286726029471313  0.8762498447688890   T   T   T
  0.5000000000000003  0.4405477814059574  0.7445785928099518   T   T   T
  0.5000000000000003 -0.0482538363231675  0.6231000437044992   T   T   T
  0.5000000000000003  0.4770590088635742  0.4961190435950182   T   T   T
  0.5000000000000003 -0.0127957459653764  0.3737861678984014   T   T   T
  0.5000000000000003  0.5163995638484128  0.2520835552902806   T   T   T
  0.5000000000000003  0.0248342661856353  0.1296845637691810   T   T   T
 -0.0000000000000000  0.4681536927579403  0.0098087367445781   T   T   T
  0.5000000000000003  0.2880904551909264  0.9158597566218262   T   T   T
  0.5000000000000003  0.8023220339358028  0.9386416893215650   T   T   T
  0.5000000000000003  0.8425154057116546  0.8164562604994253   T   T   T
 -0.0000000000000000  0.4062533637524601  0.7751229476867776   T   T   T
  0.5000000000000003  0.2125411305382129  0.6841643765654545   T   T   T
  0.5000000000000003  0.7067588979621356  0.6893324868380734   T   T   T
 -0.0000000000000000  0.0088037617479526  0.6113545631385825   T   T   T
  0.5000000000000003  0.7031294075186306  0.5609546149487193   T   T   T
 -0.0000000000000000  0.4094900578886608  0.5162325331574996   T   T   T
  0.5000000000000003  0.2240286043147826  0.4469580405851037   T   T   T
  0.5000000000000003  0.7161953728870973  0.4377503367596860   T   T   T
 -0.0000000000000000 -0.0086701313377206  0.3774534233697456   T   T   T
  0.5000000000000003  0.7523482389354302  0.3125682754302385   T   T   T
  0.5000000000000003  0.2520279219034776  0.3128631084549974   T   T   T
 -0.0000000000000000  0.5109240319526832  0.2479449726741955   T   T   T
  0.5000000000000003  0.2767641292014402  0.1787086554529702   T   T   T
  0.5000000000000003  0.7826655245327029  0.1872388570135073   T   T   T
 -0.0000000000000000  0.0903842969888379  0.1092204826130398   T   T   T
  0.5000000000000003  0.8009138123039713  0.0638044874890286   T   T   T
