Sr Co O 
 1.0000000000000000
     3.6973669255593173    0.0000000000000000    0.0000000000000000
     0.0000000000000000   -8.0059354908579632    8.0055609335855333
     0.0000000000000000   -4.0505154844624212  -12.0559730403355445
 Sr  Co  O  
   8   8  20
Selective dynamics
Direct
  0.0000000000000000  0.0105983892652258  0.0238482966800262   T   T   T
  0.0000000000000000  0.1507813360967086  0.7638009752733391   T   T   T
  0.0000000000000000  0.2498063355295050  0.5124890199210447   T   T   T
  0.0000000000000000  0.3786892957025510  0.2434551209161052   T   T   T
  0.0000000000000000  0.5182330906506977  0.0024505043332845   T   T   T
  0.0000000000000000  0.6080896113516491  0.7452931074100270   T   T   T
  0.0000000000000000  0.7145974115228709  0.4878740047910036   T   T   T
  0.0000000000000000  0.8645471190483935  0.2357362492451228   T   T   T
  0.5000000000000001  0.8582180522914705  0.7418585940239616   T   T   T
  0.5000000000000001 -0.0045023326213899  0.4851629629649034   T   T   T
  0.5000000000000001  0.1265853918648032  0.2515033394316400   T   T   T
  0.5000000000000001  0.2664322410294601  0.0112273639362539   T   T   T
  0.5000000000000001  0.3834228116664141  0.7594018630593878   T   T   T
  0.5000000000000001  0.4921361035387057  0.4999834607068132   T   T   T
  0.5000000000000001  0.6255398039242799  0.2506309338987811   T   T   T
  0.5000000000000001  0.7589664939747918 -0.0006330750106737   T   T   T
  0.5000000000000001  0.8607012575607257  0.8836766157711533   T   T   T
  0.0000000000000000  0.9077317447148285  0.7115948964844430   T   T   T
  0.5000000000000001  0.1391690683784468  0.6218292921130849   T   T   T
  0.5000000000000001  0.0672814533713245  0.3844108550395049   T   T   T
  0.0000000000000000  0.1664580568865318  0.2831532349030704   T   T   T
  0.5000000000000001  0.1990661976834669  0.1348893020299111   T   T   T
  0.0000000000000000  0.2004248490856660 -0.0267046982971797   T   T   T
  0.5000000000000001  0.4395594590694335  0.1203717074153502   T   T   T
  0.5000000000000001  0.3122268543720793  0.8788155208164488   T   T   T
  0.0000000000000000  0.3692146525918761  0.7450019731626184   T   T   T
  0.5000000000000001  0.5736370247835214  0.8681620921407258   T   T   T
  0.5000000000000001  0.4183128595123670  0.6107221633645247   T   T   T
  0.0000000000000000  0.4568396805187658  0.4748142697992548   T   T   T
  0.5000000000000001  0.6830209331324357  0.6238092449178249   T   T   T
  0.5000000000000001  0.5410867165969391  0.3716540645970943   T   T   T
  0.0000000000000000  0.6322233412129159  0.2572300199334486   T   T   T
  0.5000000000000001  0.8215244443004572  0.4089908694339395   T   T   T
  0.5000000000000001  0.6935053979922299  0.1282744972196377   T   T   T
  0.0000000000000000  0.7596836372376242 -0.0045635203331131   T   T   T
  0.5000000000000001  0.9436913249518984  0.1347850135902408   T   T   T
