Sr Co O 
 1.0000000000000000
     3.9829292323629546   -0.0000000000000000    3.8704564552315324
    -0.0000000000000000   -7.8893837035307826    0.0000000000000000
     7.8283269638816693    0.0000000000000000   -7.5995651834171776
 Sr  Co  O  
   8   8  20
Selective dynamics
Direct
 -0.0210113476276274  0.0023859461159681  0.0071496721473326   T   T   T
  0.4911542316612004 -0.0101456554031173  0.7476726119912295   T   T   T
  0.0088457683388020 -0.0101456554031173  0.5023273880087700   T   T   T
  0.5210113476276288  0.0023859461159681  0.2428503278526669   T   T   T
 -0.0210113476276273  0.4976140538840315  0.0071496721473325   T   T   T
  0.4911542316612002  0.5101456554031171  0.7476726119912296   T   T   T
  0.0088457683388020  0.5101456554031171  0.5023273880087699   T   T   T
  0.5210113476276288  0.4976140538840315  0.2428503278526669   T   T   T
  0.5023028033347144  0.7499999999999993  0.0088421286436733   T   T   T
 -0.0169480613098624  0.7499999999999993  0.7464093680430058   T   T   T
  0.5169480613098645  0.7499999999999993  0.5035906319569937   T   T   T
 -0.0023028033347128  0.7499999999999993  0.2411578713563263   T   T   T
  0.5059022021197314  0.2499999999999998 -0.0142015829664045   T   T   T
  0.0252531794827351  0.2499999999999998  0.7619635148221581   T   T   T
  0.4747468205172653  0.2499999999999998  0.4880364851778407   T   T   T
 -0.0059022021197310  0.2499999999999998  0.2642015829664041   T   T   T
  0.2500000000000008  0.7499999999999993  0.1249999999999998   T   T   T
  0.4755735183106577  0.0143387267819602  0.0020407500118773   T   T   T
  0.6882290884242350  0.7499999999999993  0.8695038833237062   T   T   T
  0.7500000000000029  0.7499999999999993  0.6250000000000000   T   T   T
  0.0267736905559646 -0.0223364645124505  0.7700411860575673   T   T   T
  0.2500000000000009  0.7499999999999993  0.6249999999999994   T   T   T
  0.4732263094440363 -0.0223364645124505  0.4799588139424324   T   T   T
  0.8117709115757679  0.7499999999999993  0.3804961166762918   T   T   T
  0.7500000000000020  0.7499999999999993  0.1249999999999997   T   T   T
  0.0244264816893434  0.0143387267819602  0.2479592499881222   T   T   T
  0.1983089992662842  0.2499999999999998  0.9110429803206999   T   T   T
  0.4755735183106578  0.4856612732180395  0.0020407500118772   T   T   T
  0.7091285477880560  0.2499999999999998  0.8194857240064068   T   T   T
  0.0267736905559646  0.5223364645124495  0.7700411860575673   T   T   T
  0.2500000000000009  0.2499999999999998  0.6249999999999994   T   T   T
  0.3016910007337180  0.2499999999999998  0.3389570196792998   T   T   T
  0.4732263094440361  0.5223364645124496  0.4799588139424323   T   T   T
  0.7908714522119498  0.2499999999999998  0.4305142759935924   T   T   T
  0.7500000000000020  0.2499999999999998  0.1249999999999997   T   T   T
  0.0244264816893434  0.4856612732180395  0.2479592499881223   T   T   T
