Sr Co O 
 1.0000000000000000
    -3.7100473650337480    0.0000000000000000    0.0000000000000000
     0.0000000000000000   -7.9376817411725655    0.0000000000000000
     0.0000000000000000    3.9688408705862828   15.8884524356418702
 Sr  Co  O  
   8   8  21
Selective dynamics
Direct
 -0.0000000000000000  0.0085758235759702  0.0041837376382463   T   T   T
 -0.0000000000000000  0.1365684862701864  0.2465334507545983   T   T   T
  0.0000000000000000  0.2615830250128941  0.5037954864370794   T   T   T
  0.0000000000000000  0.3706305362874807  0.7429398252347523   T   T   T
 -0.0000000000000000  0.4956079140622761  0.0041837376382463   T   T   T
  0.0000000000000000  0.6099649644844115  0.2465334507545983   T   T   T
 -0.0000000000000000  0.7422124614241843  0.5037954864370794   T   T   T
  0.0000000000000000  0.8723092889472709  0.7429398252347523   T   T   T
  0.4999999999999998  0.8164400885233705  0.1328801770467398   T   T   T
  0.4999999999999998  0.9373530825525699  0.3747061651051385   T   T   T
  0.4999999999999998  0.0614495070508609  0.6228990141017228   T   T   T
  0.4999999999999998  0.1884772499523172  0.8769544999046361   T   T   T
  0.4999999999999998  0.3123972764828298  0.1247945529656593   T   T   T
  0.4999999999999998  0.4373883689146942  0.3747767378293889   T   T   T
  0.4999999999999998  0.5619471572955643  0.6238943145911292   T   T   T
  0.4999999999999998  0.6839761597623153  0.8679523195246318   T   T   T
 -0.0000000000000000  0.8023478073463044  0.1046956146926073   T   T   T
  0.4999999999999998  0.0429133649722921  0.1194522844104486   T   T   T
  0.4999999999999998  0.8792794099591623  0.2585588199183232   T   T   T
  0.4999999999999998  0.1641654298503074  0.3725710314245818   T   T   T
  0.4999999999999998 -0.0060718717484492  0.4878562565031027   T   T   T
 -0.0000000000000000  0.0627050229459714  0.6254100458919437   T   T   T
  0.4999999999999998  0.3074007025440229  0.6254707993787862   T   T   T
  0.4999999999999998  0.1317665485336786  0.7635330970673587   T   T   T
  0.4999999999999998  0.4224054066679983  0.8803371829693983   T   T   T
  0.4999999999999998  0.2464617654430800 -0.0070764691138402   T   T   T
 -0.0000000000000000  0.3109716731318687  0.1219433462637373   T   T   T
  0.4999999999999998  0.5765389194381564  0.1194522844104486   T   T   T
  0.4999999999999998  0.3744572171005829  0.2489144342011659   T   T   T
 -0.0000000000000000  0.4364478709159321  0.3728957418318646   T   T   T
  0.4999999999999998  0.7084056015742747  0.3725710314245818   T   T   T
  0.4999999999999998  0.4987703713949980  0.4975407427899964   T   T   T
 -0.0000000000000000  0.5635430323995029  0.6270860647990063   T   T   T
  0.4999999999999998  0.8180700968347628  0.6254707993787862   T   T   T
  0.4999999999999998  0.6269985633756886  0.7539971267513782   T   T   T
 -0.0000000000000000  0.7026098266813158  0.9052196533626328   T   T   T
  0.4999999999999998  0.9579317763014000  0.8803371829693983   T   T   T
