Sr Co O 
 1.0000000000000000
     4.1384294956729386   -3.8735107564580273   -3.8350277441082681
    -4.1384294956729386   -3.8735107564580273    3.8350277441082681
    -8.1864453685712988    3.8735107564580273   -7.5816121289330063
 Sr  Co  O  
   8   8  20
Selective dynamics
Direct
  0.0271500275956174 -0.0149067888416157 -0.0090613180395141   T   T   T
  0.6191545291978989  0.1612113456351313  0.7590613180395148   T   T   T
  0.2299088121403470  0.2976374668800740  0.5120071745003132   T   T   T
  0.8892236657701553  0.3824323096313375  0.2448409686110519   T   T   T
  0.4838316384374873  0.4689257777297913 -0.0124179280176635   T   T   T
  0.1063437057474551  0.6212495664551507  0.7624179280176642   T   T   T
  0.7625913410202871  0.7693826971591022  0.5051590313889498   T   T   T
  0.4106302923797612  0.8429016376400332  0.2379928254996875   T   T   T
  0.6237840864221479  0.6303988933339164  0.7465890027563354   T   T   T
  0.2492959236549823  0.7617772143767825  0.5252368987335938   T   T   T
  0.8615403156431896  0.8490590249213867  0.2247631012664068   T   T   T
  0.5088098905775822  0.0021950836658133  0.0034109972436659   T   T   T
  0.1084455468486360  0.1291495172725356  0.7460081956892350   T   T   T
  0.7289974748764025  0.2889523485906671  0.5040123583668672   T   T   T
  0.4099399902238010  0.3499851165095349  0.2459876416331334   T   T   T
  0.0081413215833012  0.4874373511594005  0.0039918043107652   T   T   T
  0.7918796303058795  0.5830063288142381  0.8784311061279338   T   T   T
  0.8904443133630114  0.8664968429178787  0.7408768487662263   T   T   T
  0.4398457839244255  0.7498954593386145  0.6737376396114790   T   T   T
  0.1902004891794898  0.9765221429251695  0.5942213923416146   T   T   T
  0.8831931806776298  0.0630261416089950  0.3376867668507341   T   T   T
  0.7011578197271373  0.8911081443129449  0.0762623603885218   T   T   T
  0.4458341070355538  0.1524418172823101  0.1334002345204736   T   T   T
  0.7506199941516544  0.2745674645967849  0.0091231512337761   T   T   T
  0.3295752226863055  0.0384485241779462  0.8715688938720668   T   T   T
  0.0358294756627060  0.2858294756627056  0.8750000000000004   T   T   T
  0.3444359440250436  0.3896043111329420  0.7545475971183870   T   T   T
  0.8698289318686112  0.1683884820747903  0.6034931990424794   T   T   T
  0.6440415827618371  0.4374338725150799  0.6165997654795272   T   T   T
 -0.0315056049028260  0.5163277114073500  0.4807285775560358   T   T   T
  0.4686391118958503  0.2186391118958496  0.3750000000000008   T   T   T
  0.3503393747582619  0.6705064138268961  0.4123132331492673   T   T   T
  0.6605991338513161  0.6127658175411372  0.2692714224439650   T   T   T
  0.1898952830323121  0.3913357328261314  0.1465068009575215   T   T   T
  1.0073007505835567  0.7209790968378758  0.1557786076583866   T   T   T
  0.2600567140145553  0.7148883469066554 -0.0045475971183868   T   T   T
