Sr Co O 
 1.0000000000000000
     3.8822310367390052    0.0000000000000000    0.0000000000000000
     0.0000000000000000    3.8498129037131350    0.0000000000000000
     0.0000000000000000    0.0000000000000000   23.8645180892709909
 Sr  Co  O  
   6   6  13
Selective dynamics
Direct
  0.0000000000000000  0.0000000000000000 -0.0044339022222382   T   T   T
  0.0000000000000000  0.0000000000000000  0.1661934071008204   T   T   T
  0.0000000000000000  0.0000000000000000  0.3121351872270713   T   T   T
  0.0000000000000000  0.0000000000000000  0.5101124419041989   T   T   T
  0.0000000000000000  0.0000000000000000  0.6770643167056184   T   T   T
  0.0000000000000000  0.0000000000000000  0.8295788646757619   T   T   T
  0.5000000000000001  0.5000000000000000  0.0842886701345343   T   T   T
  0.5000000000000001  0.5000000000000000  0.2426911174200307   T   T   T
  0.5000000000000001  0.5000000000000000  0.4099281174538152   T   T   T
  0.5000000000000001  0.5000000000000000  0.5915829515742426   T   T   T
  0.5000000000000001  0.5000000000000000  0.7534504326227636   T   T   T
  0.5000000000000001  0.5000000000000000  0.9155124816419150   T   T   T
  0.0000000000000000  0.5000000000000000  0.0845039616695088   T   T   T
  0.0000000000000000  0.5000000000000000  0.2352490647847482   T   T   T
  0.5000000000000001  0.0000000000000000  0.2303624499889173   T   T   T
  0.5000000000000001  0.5000000000000000  0.3324304981220670   T   T   T
  0.5000000000000001  0.0000000000000000  0.4340221461499655   T   T   T
  0.0000000000000000  0.5000000000000000  0.5689768244200735   T   T   T
  0.5000000000000001  0.0000000000000000  0.5756283681440122   T   T   T
  0.5000000000000001  0.5000000000000000  0.6698982045075437   T   T   T
  0.0000000000000000  0.5000000000000000  0.7532765657234644   T   T   T
  0.5000000000000001  0.0000000000000000  0.7537652969415231   T   T   T
  0.5000000000000001  0.5000000000000000  0.8371672391627547   T   T   T
  0.0000000000000000  0.5000000000000000  0.9326003386878149   T   T   T
  0.5000000000000001  0.0000000000000000  0.9373483192498282   T   T   T
