Sr Co O 
 1.0000000000000000
     3.9543330481158336    3.9341075183481120    0.0451821743682694
     3.9543330481158336   -3.9341075183481120    0.0451821743682692
    -0.1810228209778085   -0.0000000000000003  -15.4973489018612902
 Sr  Co  O  
   8   8  20
Selective dynamics
Direct
 -0.0225439198574353 -0.0048423648591171  0.0056452563462442   T   T   T
  0.0204580605310884  0.0058299066663419  0.7376674582550853   T   T   T
  0.0136096183454456  0.0083972548576399  0.4993092265698474   T   T   T
 -0.0019065911283350 -0.0015463204688574  0.2564028283323870   T   T   T
  0.4951576351408828  0.4774560801425666  0.0056452563462442   T   T   T
  0.5058299066663413  0.5204580605310897  0.7376674582550855   T   T   T
  0.5083972548576399  0.5136096183454474  0.4993092265698476   T   T   T
  0.4984536795311420  0.4980934088716663  0.2564028283323870   T   T   T
  0.5046730858641437  0.0046730858641437  0.8795768381165474   T   T   T
  0.5163947978284987  0.0163947978284987  0.6142352020339760   T   T   T
  0.5043883290432311  0.0043883290432310  0.3744540219652688   T   T   T
  0.4880266853153075 -0.0119733146846925  0.1291531372324167   T   T   T
 -0.0437166496414972  0.4562833503585042  0.8594600022013144   T   T   T
  0.0110910797300947  0.5110910797300964  0.6267497523011459   T   T   T
  0.0030602799101691  0.5030602799101708  0.3779340972597989   T   T   T
 -0.0059229422625941  0.4940770577374073  0.1300801700466177   T   T   T
  0.2328140131572098  0.1902957484770361  0.8809867143220305   T   T   T
  0.2768974497315027  0.7768974497315055  0.6245899868962416   T   T   T
  0.2740961921083813  0.2456893420797529  0.6375382829945719   T   T   T
  0.5423701093992148  0.0423701093992148  0.4992580690184227   T   T   T
  0.2710144150141445  0.7710144150141472  0.3870431093079866   T   T   T
  0.2380218538482797  0.2703147355830565  0.3766563072695749   T   T   T
  0.4707440529340480 -0.0292559470659521  0.2479732222890876   T   T   T
  0.2159024948977561  0.7159024948977587  0.0915088673783677   T   T   T
  0.2585669734155908  0.2188369154519445  0.1045950092842490   T   T   T
  0.7388713218125456  0.2388713218125462  0.8999684335033378   T   T   T
  0.6902957484770358  0.7328140131572127  0.8809867143220309   T   T   T
  0.0555040930598652  0.5555040930598671  0.7538623813305372   T   T   T
  0.7498391085644778  0.2498391085644784  0.6500396505453568   T   T   T
  0.7456893420797521  0.7740961921083842  0.6375382829945717   T   T   T
 -0.0125624310655183  0.4874375689344833  0.5094284266262172   T   T   T
  0.7384864488460023  0.2384864488460030  0.3626722781963159   T   T   T
  0.7703147355830553  0.7380218538482823  0.3766563072695750   T   T   T
  0.0203738967327275  0.5203738967327292  0.2472621909604827   T   T   T
  0.7584728823996638  0.2584728823996645  0.1121479968161099   T   T   T
  0.7188369154519429  0.7585669734155929  0.1045950092842490   T   T   T
