Sr Co O 
 1.0000000000000000
     3.7927134454052389    4.0483488529142679   -0.0000000000000000
     3.7927134454052389   -4.0483488529142679    0.0000000000000000
    -0.0000000000000000    0.0000000000000000  -15.6549057309658242
 Sr  Co  O  
   8   8  20
Selective dynamics
Direct
  0.0183951610802386  0.0126761195716861  0.0080348600701742   T   T   T
 -0.0163491467296385 -0.0081675405020288  0.7414132020206339   T   T   T
 -0.0081675405020288 -0.0163491467296385  0.5085867979793652   T   T   T
  0.0126761195716861  0.0183951610802387  0.2419651399298257   T   T   T
  0.5126761195716839  0.5183951610802395  0.0080348600701742   T   T   T
  0.4918324594979692  0.4836508532703625  0.7414132020206337   T   T   T
  0.4836508532703594  0.4918324594979722  0.5085867979793655   T   T   T
  0.5183951610802364  0.5126761195716870  0.2419651399298257   T   T   T
  0.4804469158154978 -0.0195530841845023  0.8772737882342976   T   T   T
  0.4835499229102309 -0.0164500770897691  0.6255740798572095   T   T   T
  0.5221715427583256  0.0221715427583256  0.3872129170045501   T   T   T
  0.5240375553425979  0.0240375553425979  0.1127808334080618   T   T   T
  0.0221715427583243  0.5221715427583268  0.8627870829954484   T   T   T
 -0.0164500770897704  0.4835499229102322  0.6244259201427894   T   T   T
 -0.0195530841845036  0.4804469158154990  0.3727262117657022   T   T   T
  0.0240375553425965  0.5240375553425991  0.1372191665919378   T   T   T
  0.5811657946541616  0.0811657946541619 -0.0177946077729581   T   T   T
  0.2368405061663528  0.7368405061663572  0.9156281052834531   T   T   T
  0.1958913304981175  0.2601501741030293  0.8826959717649340   T   T   T
  0.5032274356778271  0.0032274356778272  0.7634411636446413   T   T   T
  0.2326264300437895  0.7326264300437940  0.6351714040115697   T   T   T
  0.2347522425365850  0.2347522425365865  0.6249999999999998   T   T   T
  0.4459093836243179 -0.0540906163756822  0.4962989484705773   T   T   T
  0.2601501741030279  0.1958913304981186  0.3673040282350656   T   T   T
  0.2743370118140263  0.7743370118140307  0.1175512468250859   T   T   T
  0.2683385649234964  0.2683385649234979  0.1249999999999999   T   T   T
  0.7601501741030260  0.6958913304981197  0.8826959717649340   T   T   T
 -0.0540906163756835  0.4459093836243190  0.7537010515294214   T   T   T
  0.7326264300437910  0.2326264300437926  0.6148285959884291   T   T   T
  0.7347522425365833  0.7347522425365879  0.6249999999999998   T   T   T
  0.0032274356778258  0.5032274356778285  0.4865588363553572   T   T   T
  0.7368405061663544  0.2368405061663557  0.3343718947165461   T   T   T
  0.6958913304981151  0.7601501741030301  0.3673040282350656   T   T   T
  0.0811657946541601  0.5811657946541632  0.2677946077729580   T   T   T
  0.7743370118140277  0.2743370118140294  0.1324487531749138   T   T   T
  0.7683385649234955  0.7683385649235001  0.1249999999999999   T   T   T
