Sr Co O 
 1.0000000000000000
    -3.6964656561888436    0.0000000000000000    0.0000000000000000
     0.0000000000000000    4.0274747744468575    7.8090308065785976
     0.0000000000000000   12.1459431666945132   -7.8423553305633487
 Sr  Co  O  
   8   8  21
Selective dynamics
Direct
  0.0000000000000000 -0.0038142069744585  0.0089363368858785   T   T   T
 -0.0000000000000000  0.3788142069744587  0.8660636631141216   T   T   T
  0.0000000000000000  0.7420522238927669  0.7390327100217895   T   T   T
 -0.0000000000000000  0.1234296375983171  0.6193414230487704   T   T   T
  0.0000000000000000  0.4974707500677452  0.4987342527829319   T   T   T
 -0.0000000000000000  0.8775292499322552  0.3762657472170687   T   T   T
  0.0000000000000000  0.2515703624016827  0.2556585769512302   T   T   T
 -0.0000000000000000  0.6329477761072336  0.1359672899782109   T   T   T
  0.5000000000000004  0.3137718736557172  0.0560713242165336   T   T   T
  0.5000000000000004  0.6874999999999992  0.9374999999999996   T   T   T
  0.5000000000000004  0.0612281263442833  0.8189286757834665   T   T   T
  0.5000000000000004  0.4347344526454594  0.6826301012802791   T   T   T
  0.5000000000000004  0.8087259570926036  0.5581107280287955   T   T   T
  0.5000000000000004  0.1874999999999999  0.4375000000000001   T   T   T
  0.5000000000000004  0.5662740429073971  0.3168892719712056   T   T   T
  0.5000000000000004  0.9402655473545407  0.1923698987197212   T   T   T
  0.5000000000000004  0.1385888491533591  0.1131878821186341   T   T   T
  0.5000000000000004  0.1875000000000012  0.9375000000000012   T   T   T
  0.5000000000000004  0.4898939686420867 -0.0099715930573323   T   T   T
  0.5000000000000004  0.5840974039449466  0.8228719036447025   T   T   T
  0.5000000000000004  0.8851060313579137  0.8849715930573330   T   T   T
  0.5000000000000004  0.9478457575047927  0.7095551135875775   T   T   T
  0.5000000000000004  0.2364111508466408  0.7618121178813659   T   T   T
  0.0000000000000000  0.4355582449321923  0.6944471868431621   T   T   T
  0.5000000000000004  0.3105137245120102  0.5644739847911312   T   T   T
  0.5000000000000004  0.6287820314251145  0.6249059463750471   T   T   T
 -0.0000000000000000  0.8194479109728530  0.5698278700991294   T   T   T
  0.5000000000000004  0.6874999999999999  0.4375000000000000   T   T   T
  0.5000000000000004 -0.0022795594784699  0.5043153909392590   T   T   T
 -0.0000000000000000  0.1874999999999999  0.4375000000000001   T   T   T
  0.5000000000000004  0.0644862754879896  0.3105260152088691   T   T   T
  0.5000000000000004  0.3772795594784706  0.3706846090607417   T   T   T
  0.0000000000000000  0.5555520890271477  0.3051721299008714   T   T   T
  0.5000000000000004  0.4271542424952087  0.1654448864124241   T   T   T
  0.5000000000000004  0.7462179685748859  0.2500940536249536   T   T   T
 -0.0000000000000000  0.9394417550678072  0.1805528131568384   T   T   T
  0.5000000000000004  0.7909025960550536  0.0521280963552983   T   T   T
