Sr Co O 
 1.0000000000000000
     3.7287414148525251    0.0000000000000000    0.0000000000000000
     0.0000000000000000    3.7868530931821183    0.0000000000000000
     0.0000000000000000    0.0000000000000000   25.4491094220729401
 Sr  Co  O  
   6   6  12
Selective dynamics
Direct
  0.0000000000000000  0.0000000000000000 -0.0142382831049279   T   T   T
  0.0000000000000000  0.0000000000000000  0.1715217298370252   T   T   T
  0.0000000000000000  0.0000000000000000  0.3266180456871537   T   T   T
  0.0000000000000000  0.0000000000000000  0.5186211507496798   T   T   T
  0.0000000000000000  0.0000000000000000  0.6674016690628557   T   T   T
  0.0000000000000000  0.0000000000000000  0.8369939814795813   T   T   T
  0.5000000000000002  0.5000000000000001  0.0865822020897913   T   T   T
  0.5000000000000002  0.5000000000000001  0.2472440895667412   T   T   T
  0.5000000000000002  0.5000000000000001  0.4168395034824446   T   T   T
  0.5000000000000002  0.5000000000000001  0.5972592599368254   T   T   T
  0.5000000000000002  0.5000000000000001  0.7523100236258989   T   T   T
  0.5000000000000002  0.5000000000000001  0.9068551283632794   T   T   T
  0.5000000000000002  0.5000000000000001  0.0182248104241146   T   T   T
  0.5000000000000002  0.5000000000000001  0.1580570434468175   T   T   T
  0.0000000000000000  0.5000000000000001  0.2515228425566093   T   T   T
  0.0000000000000000  0.5000000000000001  0.3858812986030177   T   T   T
  0.5000000000000002  0.5000000000000001  0.4877725402349613   T   T   T
  0.0000000000000000  0.5000000000000001  0.5888714750032791   T   T   T
  0.5000000000000002  0.0000000000000000  0.5888022953699177   T   T   T
  0.5000000000000002  0.5000000000000001  0.6791722764596784   T   T   T
  0.5000000000000002  0.0000000000000000  0.7525672578574458   T   T   T
  0.5000000000000002  0.5000000000000001  0.8256928168606217   T   T   T
  0.0000000000000000  0.5000000000000001  0.9164467796629335   T   T   T
  0.5000000000000002  0.0000000000000000  0.9163133765046404   T   T   T
