Sr Co O 
 1.0000000000000000
     3.7532354494770206   -0.0000000000000000   -0.0000000000000000
     0.0000000000000000    3.7532354494770206   -0.0000000000000001
    -0.0000000000000000   -0.0000000000000003   13.3142660707682374
 Sr  Co  O  
   3   3   6
Selective dynamics
Direct
 -0.0000000000000000  0.0000000000000000 -0.0292493321400429   T   T   T
  0.0000000000000000  0.0000000000000000  0.3333333333333334   T   T   T
  0.0000000000000000  0.0000000000000000  0.6959159988067095   T   T   T
  0.4999999999999997  0.5000000000000001  0.1583337535533285   T   T   T
  0.4999999999999997  0.5000000000000001  0.5083329131133382   T   T   T
  0.4999999999999997  0.5000000000000001  0.8333333333333329   T   T   T
  0.4999999999999997  0.5000000000000001  0.0214347543643797   T   T   T
 -0.0000000000000000  0.5000000000000001  0.2194036376866994   T   T   T
  0.4999999999999997 -0.0000000000000000  0.4472630289799667   T   T   T
  0.4999999999999997  0.5000000000000001  0.6452319123022877   T   T   T
 -0.0000000000000000  0.5000000000000001  0.8331928239898407   T   T   T
  0.4999999999999997  0.0000000000000000  0.8334738426768257   T   T   T
