Sr Co O 
 1.0000000000000000
     3.8282717082883901    0.0000000000000000    0.0000000000000000
     0.0000000000000000    3.8008220098373915    0.0000000000000000
     0.0000000000000000    0.0000000000000000   24.8259480727169901
 Sr  Co  O  
   6   6  13
Selective dynamics
Direct
  0.0000000000000000  0.0000000000000000 -0.0121803591085492   T   T   T
  0.0000000000000000  0.0000000000000000  0.1794736558927780   T   T   T
  0.0000000000000000  0.0000000000000000  0.3227472170422062   T   T   T
  0.0000000000000000  0.0000000000000000  0.5173865937059304   T   T   T
  0.0000000000000000  0.0000000000000000  0.6661321377602640   T   T   T
  0.0000000000000000  0.0000000000000000  0.8385194877063360   T   T   T
  0.4999999999999998  0.5000000000000001  0.0836611060465982   T   T   T
  0.4999999999999998  0.5000000000000001  0.2466923697983183   T   T   T
  0.4999999999999998  0.5000000000000001  0.4177078056825583   T   T   T
  0.4999999999999998  0.5000000000000001  0.5939766534040009   T   T   T
  0.4999999999999998  0.5000000000000001  0.7536933275405021   T   T   T
  0.4999999999999998  0.5000000000000001  0.9106847755674207   T   T   T
  0.4999999999999998  0.0000000000000000  0.0581228812322751   T   T   T
  0.4999999999999998  0.5000000000000001  0.1581211546771743   T   T   T
  0.0000000000000000  0.5000000000000001  0.2599858062452091   T   T   T
  0.4999999999999998  0.0000000000000000  0.2513937489118415   T   T   T
  0.4999999999999998  0.0000000000000000  0.3889830304894477   T   T   T
  0.4999999999999998  0.5000000000000001  0.4908116428052392   T   T   T
  0.0000000000000000  0.5000000000000001  0.5894428911939658   T   T   T
  0.4999999999999998  0.0000000000000000  0.5883038921404325   T   T   T
  0.4999999999999998  0.5000000000000001  0.6798235108567309   T   T   T
  0.4999999999999998  0.0000000000000000  0.7555862816643032   T   T   T
  0.4999999999999998  0.5000000000000001  0.8292384090865759   T   T   T
  0.0000000000000000  0.5000000000000001  0.9274403664292843   T   T   T
  0.4999999999999998  0.0000000000000000  0.9209183145242199   T   T   T
