Sr Co O 
 1.0000000000000000
    -3.6692511872796398    0.0000000000000000    0.0000000000000000
     0.0000000000000000    4.1364058886945640    7.8648809619180406
     0.0000000000000000   12.3664427156384598   -7.8451569443824640
 Sr  Co  O  
   8   8  20
Selective dynamics
Direct
 -0.0000000000000000 -0.0343326110254873 -0.0073330115171280   T   T   T
 -0.0000000000000000  0.3448378561881263  0.8749980700087194   T   T   T
 -0.0000000000000000  0.7527854837552160  0.7457337841099173   T   T   T
 -0.0000000000000000  0.1135288951555233  0.6265978795635758   T   T   T
 -0.0000000000000000  0.5071681980669888  0.5034608946124344   T   T   T
 -0.0000000000000000  0.8884293475438775  0.3934161296957349   T   T   T
 -0.0000000000000000  0.2713852066607839  0.2761376354955273   T   T   T
 -0.0000000000000000  0.6375986623319935  0.1400305109645597   T   T   T
  0.5000000000000001  0.3235176845027479  0.0616838579965112   T   T   T
  0.5000000000000001  0.6631710899923501  0.9312138810214239   T   T   T
  0.5000000000000001  0.0446338106745875  0.8101547595293023   T   T   T
  0.5000000000000001  0.4319711795705782  0.6955597598640707   T   T   T
  0.5000000000000001  0.8131677450317346  0.5678483542084035   T   T   T
  0.5000000000000001  0.1970289884745556  0.4489933808188077   T   T   T
  0.5000000000000001  0.5799115074461053  0.3264229642330913   T   T   T
  0.5000000000000001  0.9530470748296296  0.2082143634547310   T   T   T
  0.5000000000000001  0.1664046583880730 -0.0219036068649024   T   T   T
  0.5000000000000001  0.4803594083486854 -0.0143076542409111   T   T   T
  0.5000000000000001  0.5468125419392293  0.8145157571309064   T   T   T
  0.5000000000000001  0.8384822106679888  0.8748572364437653   T   T   T
 -0.0000000000000000  0.0581280538258924  0.8262720643007898   T   T   T
  0.5000000000000001  0.9350877690176671  0.6906949878261749   T   T   T
  0.5000000000000001  0.2596279567276792  0.7585021132945996   T   T   T
  0.5000000000000001  0.3217900035728178  0.5864479387473073   T   T   T
  0.5000000000000001  0.6066733030672585  0.6397812335504262   T   T   T
 -0.0000000000000000  0.8046837463245440  0.5702751413045161   T   T   T
  0.5000000000000001  0.6996853337505614  0.4429440636403778   T   T   T
  0.5000000000000001  0.0068875043330621  0.5063249375864992   T   T   T
 -0.0000000000000000  0.2015668880627985  0.4513863941941070   T   T   T
  0.5000000000000001  0.0795609967716213  0.3165849475123264   T   T   T
  0.5000000000000001  0.3898276964861446  0.3879679199844214   T   T   T
 -0.0000000000000000  0.5691392628669625  0.3098789741709183   T   T   T
  0.5000000000000001  0.4028511753009558  0.1762162125047677   T   T   T
  0.5000000000000001  0.7590700572624738  0.2457883887279119   T   T   T
 -0.0000000000000000  0.9927911998238290  0.1670589041300120   T   T   T
  0.5000000000000001  0.7677202663525938  0.0425807921070201   T   T   T
