Sr Co O 
 1.0000000000000000
     3.9096948854469780   -4.0640883031694068   -0.0233588170217001
    -3.8939693892003464   -0.0309833267471972   -7.5797697985804735
     7.9249764128545079    8.2296112466548408   -0.0349519455671366
 Sr  Co  O  
   8   8  20
Selective dynamics
Direct
  0.0031485905029335  0.0154561232917510  0.0185172750469071   T   T   T
  0.7853235044781763  0.5217114785749909  0.8720448504961882   T   T   T
  0.5829567944919651  0.0029250524763419  0.7445359415901986   T   T   T
  0.2630314640370884  0.4799347347864259  0.6067203868633769   T   T   T
  0.0114453339864348 -0.0155977080224115  0.4919739211689415   T   T   T
  0.7383402858920542  0.4841296860293399  0.3791350372264563   T   T   T
  0.4828242751981541 -0.0095726301619855  0.2682602584498653   T   T   T
  0.2266842493750778  0.5030813498340060  0.1442501474518817   T   T   T
  0.8386421611317023  0.7216988608952668  0.1818907568750117   T   T   T
  0.6030800386801952  0.2405911764820164  0.0836147763469617   T   T   T
  0.3856038224565972  0.7750623207273613  0.9707893037167515   T   T   T
  0.1731752315607435  0.2971936826027957  0.8079742792391695   T   T   T
  0.8976593088989800  0.7260654089527022  0.6683650565287809   T   T   T
  0.6468882470986554  0.2347484639748182  0.5626211914561877   T   T   T
  0.3904618416883370  0.7493735973084868  0.4435058586973182   T   T   T
  0.1317464884415223  0.2588841319104161  0.3210855600509376   T   T   T
  0.6616028702148095  0.8072397179182672  0.0864184741620005   T   T   T
  0.1153484931794590  0.7547078901035091  0.0670184802979525   T   T   T
  0.6547435009869815  0.4578528519130031  0.0717381845913450   T   T   T
  0.0034519933853624  0.2537800416433821  0.9281538860603573   T   T   T
  0.4518219655993797  0.0085681069100702 -0.0391196102769531   T   T   T
  0.7989464852481344  0.7989228025331416  0.8150752627801325   T   T   T
  0.2713770810266747  0.5581359884222040  0.8439130080112974   T   T   T
  0.9160189115503804  0.2113134303865954  0.6671725686158300   T   T   T
  0.4300468280729574  0.2493199884676165  0.7303387909622402   T   T   T
  0.6718350930554515  0.7519703212863540  0.5564362326335586   T   T   T
  0.1868557593417382  0.7739974868638311  0.6036357555963051   T   T   T
  0.7906925746872350  0.4787428044597140  0.6225321739703780   T   T   T
  0.3727170490145735  0.2403771705551798  0.4415122268697694   T   T   T
  0.8795765396860924  0.2057851761933110  0.4126647004389553   T   T   T
  0.4942719021051054 -0.0092034745855178  0.4984611977217794   T   T   T
  0.0863873132612274  0.7486214699208427  0.3039560947622648   T   T   T
  0.6058801437261303  0.7349167913128387  0.3024084090337413   T   T   T
  0.2255550146646827  0.5111298300467155  0.3873943638928986   T   T   T
  0.8720515173082911  0.2474346158652281  0.1860186432518751   T   T   T
  0.3498076866369395  0.2307010809390639  0.1989863865461993   T   T   T
