Sr Co O 
 1.0000000000000000
    -3.9205844116029107    0.0000000000000000   -3.8750144717361930
     0.0000000000000000   -7.8844506098299618    0.0000000000000000
    -7.7882108049383243    3.9422253049149809    7.6969134714168241
 Sr  Co  O  
   8   8  22
Selective dynamics
Direct
  0.0039421900815274  0.0065589302333524  0.0013137170892716   T   T   T
  0.4999999999999989  0.1343600797216628  0.2500000000000002   T   T   T
 -0.0039421900815287  0.2552452131440808  0.4986862829107284   T   T   T
  0.4999999999999987  0.3750000000000002  0.7500000000000008   T   T   T
  0.0039421900815274  0.4947547868559190  0.0013137170892716   T   T   T
  0.4999999999999989  0.6156399202783370  0.2500000000000002   T   T   T
 -0.0039421900815287  0.7434410697666473  0.4986862829107284   T   T   T
  0.4999999999999987  0.8750000000000001  0.7500000000000008   T   T   T
  0.4958158195383717  0.7582003465478621  0.0164006930957249   T   T   T
 -0.0000000000000002  0.8749999999999997  0.2500000000000001   T   T   T
  0.5041841804616263 -0.0082003465478625  0.4835993069042753   T   T   T
 -0.0143841239468822  0.1277574926232780  0.7555149852465562   T   T   T
  0.5037845958518945  0.2491772059948699 -0.0016455880102595   T   T   T
 -0.0000000000000002  0.3749999999999998  0.2500000000000001   T   T   T
  0.4962154041481040  0.5008227940051301  0.5016455880102605   T   T   T
  0.0143841239468822  0.6222425073767219  0.7444850147534443   T   T   T
  0.7979386986672824  0.7994069322989003  0.0988138645978013   T   T   T
  0.5122919447257605 -0.0327092034626719 -0.0134252010363104   T   T   T
  0.2732416240270583  0.8252202194213122  0.1504404388426253   T   T   T
  0.2020613013327153  0.9505930677010992  0.4011861354021992   T   T   T
 -0.0000000000000002  0.1427002587573485  0.2500000000000001   T   T   T
  0.7267583759729395  0.9247797805786870  0.3495595611573751   T   T   T
  0.7928100148737803  0.0623579201126837  0.6247158402253676   T   T   T
  0.4877080552742381  0.2307159975736386  0.5134252010363106   T   T   T
  0.2656549340568887  0.1708593932923712  0.8417187865847425   T   T   T
  0.0000000000000000  0.3749999999999999  0.7500000000000002   T   T   T
  0.7487769105799155  0.1930625778637558  0.8861251557275122   T   T   T
  0.7258091615827004  0.3171876779941388  0.1343753559882780   T   T   T
  0.5122919447257603  0.5192840024263613 -0.0134252010363103   T   T   T
  0.2434012988632126  0.2996149460239814  0.0992298920479633   T   T   T
  0.2741908384172975  0.4328123220058611  0.3656246440117225   T   T   T
 -0.0000000000000002  0.6072997412426515  0.2500000000000001   T   T   T
  0.7565987011367847  0.4503850539760182  0.4007701079520368   T   T   T
  0.7343450659431092  0.5791406067076289  0.6582812134152581   T   T   T
  0.4877080552742381  0.7827092034626719  0.5134252010363106   T   T   T
  0.2512230894200830  0.5569374221362442  0.6138748442724890   T   T   T
  0.2071899851262181  0.6876420798873167  0.8752841597746336   T   T   T
  0.0000000000000000  0.8749999999999997  0.7500000000000002   T   T   T
