Sr Co O 
 1.0000000000000000
    -3.6832956596593189    0.0000000000000000    0.0000000000000000
     0.0000000000000000    4.0622977665214668    3.9721506905281725
     0.0000000000000000   16.1709135064999323  -15.8065210912877401
 Sr  Co  O  
   8   8  20
Selective dynamics
Direct
 -0.0000000000000000 -0.0382204611794545 -0.0041064891582890   T   T   T
 -0.0000000000000000  0.4715434918172062  0.8818974694077955   T   T   T
 -0.0000000000000000  0.0638698698193420  0.7521357615165868   T   T   T
 -0.0000000000000000  0.5746619686442596  0.6385862714812289   T   T   T
 -0.0000000000000000 -0.0638424121859767  0.4962547169381920   T   T   T
 -0.0000000000000000  0.4857198628607866  0.3631132923457627   T   T   T
 -0.0000000000000000 -0.0001260003679995  0.2491997558507675   T   T   T
 -0.0000000000000000  0.5071230034560366  0.1264623340012998   T   T   T
  0.4999999999999998  0.4959208699746724 -0.0010893383053713   T   T   T
  0.4999999999999998  0.0045637893783356  0.8780340438007866   T   T   T
  0.4999999999999998  0.5379854757734502  0.7548466430889008   T   T   T
  0.4999999999999998  0.0601951075019861  0.6329741164190762   T   T   T
  0.4999999999999998  0.4793854003434680  0.4964197085310290   T   T   T
  0.4999999999999998 -0.0254549946615101  0.3702573496222695   T   T   T
  0.4999999999999998  0.4917304021974420  0.2465489012555432   T   T   T
  0.4999999999999998 -0.0135916728748702  0.1253209740859333   T   T   T
 -0.0000000000000000  0.4496480300440474  0.0103199604270349   T   T   T
  0.4999999999999998  0.2196337742363203  0.9456362937653646   T   T   T
  0.4999999999999998  0.7207497078808660  0.9299225762920307   T   T   T
 -0.0000000000000000 -0.0395245915737340  0.8642059897462318   T   T   T
  0.4999999999999998  0.2679397992202326  0.8153737888727804   T   T   T
 -0.0000000000000000  0.5878885891768593  0.7662965536608798   T   T   T
  0.4999999999999998  0.3198029612820812  0.6859337862520245   T   T   T
  0.4999999999999998  0.8198192440490463  0.6951694520192593   T   T   T
 -0.0000000000000000  0.0705250002817223  0.6054656000523395   T   T   T
  0.4999999999999998  0.6567391912860976  0.5595122516058223   T   T   T
  0.4999999999999998  0.1991240657224557  0.4669531677413923   T   T   T
  0.4999999999999998  0.6857600819680957  0.4356299310995603   T   T   T
 -0.0000000000000000 -0.0099312148793145  0.3806866356458751   T   T   T
  0.4999999999999998  0.7416871618020290  0.3090417804006479   T   T   T
  0.4999999999999998  0.2408111831784767  0.3130880285842726   T   T   T
 -0.0000000000000000  0.4874561593634497  0.2453587570334075   T   T   T
  0.4999999999999998  0.2476692904432409  0.1765735943343104   T   T   T
  0.4999999999999998  0.7561293100150260  0.1842791686381144   T   T   T
 -0.0000000000000000  0.0511255716604811  0.1055570444017852   T   T   T
  0.4999999999999998  0.7454829032041488  0.0606402088109610   T   T   T
