Sr Co O 
 1.0000000000000000
     3.7121954930297654    0.0000000000000000    0.0000000000000000
     0.0000000000000000   -7.9433348256736718    7.9433348256736664
    -0.0000000000000000   -3.9619855797507260  -11.9053204054243906
 Sr  Co  O  
   8   8  21
Selective dynamics
Direct
 -0.0000000000000000  0.0091686831446830  0.0025646263429613   T   T   T
 -0.0000000000000000  0.1198071666347554  0.7589385745905936   T   T   T
 -0.0000000000000000  0.2566040568017214  0.4974353736570383   T   T   T
 -0.0000000000000000  0.3890233771609213  0.2499999999999997   T   T   T
  0.0000000000000000  0.4916724843579762  0.0000377606697913   T   T   T
  0.0000000000000000  0.6108685920441611  0.7410614254094053   T   T   T
 -0.0000000000000000  0.7416347236881845  0.4999622393302082   T   T   T
 -0.0000000000000000  0.8722494791990980  0.2499999999999999   T   T   T
  0.5000000000000004  0.8752709611810633  0.7440795167526641   T   T   T
  0.5000000000000004 -0.0103319162252435  0.4943588522507184   T   T   T
  0.5000000000000004  0.1270358003960541  0.2500000000000000   T   T   T
  0.5000000000000004  0.2501041612333527  0.0012683171425303   T   T   T
  0.5000000000000004  0.3811914444283993  0.7559204832473339   T   T   T
  0.5000000000000004  0.4988358440908225  0.4987316828574697   T   T   T
  0.5000000000000004  0.6264017262236020  0.2500000000000000   T   T   T
  0.5000000000000004  0.7453092315240372  0.0056411477492809   T   T   T
 -0.0000000000000000  0.8606473965504629  0.7734303177307958   T   T   T
  0.5000000000000004  0.0460877731066857  0.8777547353090325   T   T   T
  0.5000000000000004  0.9471046832941897  0.6305863008463276   T   T   T
  0.0000000000000000  0.0444093017445506  0.5249488610788494   T   T   T
  0.5000000000000004  0.0711908048995305  0.3670904213524064   T   T   T
  0.5000000000000004  0.2995056900255160  0.3638065936860227   T   T   T
  0.5000000000000004  0.1856990963394935  0.1361934063139769   T   T   T
  0.0000000000000000  0.2465588391378963 -0.0003349912270275   T   T   T
  0.5000000000000004  0.4390848403919646  0.1206361266564447   T   T   T
  0.5000000000000004  0.3021817497114658  0.8597305056210118   T   T   T
  0.0000000000000000  0.3372170788196671  0.7265696822692038   T   T   T
  0.5000000000000004  0.5665183824478622  0.8694136991536722   T   T   T
  0.5000000000000004  0.4183330377976522  0.6222452646909666   T   T   T
 -0.0000000000000000  0.4968938303649240  0.5003349912270273   T   T   T
  0.5000000000000004  0.6924512440904528  0.6402694943789866   T   T   T
  0.5000000000000004  0.5684487137355199  0.3793638733435548   T   T   T
 -0.0000000000000000  0.6313002122027235  0.2499999999999999   T   T   T
  0.5000000000000004  0.8197802754174529  0.3765996679772075   T   T   T
  0.5000000000000004  0.6931806074402449  0.1234003320227920   T   T   T
 -0.0000000000000000  0.7694604406656989 -0.0249488610788507   T   T   T
  0.5000000000000004  0.9541003835471242  0.1329095786475935   T   T   T
