Sr Co O 
 1.0000000000000000
    -3.7011340566176352    0.0000000000000000    0.0000000000000000
     0.0000000000000000    4.0551960997107539    7.9491385526955911
     0.0000000000000000   12.1813575755261585   -7.9573713659860523
 Sr  Co  O  
   8   8  21
Selective dynamics
Direct
 -0.0000000000000000 -0.0135623245389801  0.0052418040479741   T   T   T
 -0.0000000000000000  0.4079433148366449  0.8735959860494547   T   T   T
 -0.0000000000000000  0.7384512567810919  0.7353217098019730   T   T   T
 -0.0000000000000000  0.1155915436869873  0.6129666881590988   T   T   T
 -0.0000000000000000  0.4967667229681580  0.5016980645654300   T   T   T
 -0.0000000000000000  0.8723994928156217  0.3787591979572379   T   T   T
 -0.0000000000000000  0.2544625807280394  0.2698880547743895   T   T   T
 -0.0000000000000000  0.6415511715863823  0.1263465469626028   T   T   T
  0.5000000000000007  0.3381190935587640  0.0684385249974489   T   T   T
  0.5000000000000007  0.6900113428403802  0.9376748806165385   T   T   T
  0.5000000000000007  0.0664970716767798  0.7956897017042180   T   T   T
  0.5000000000000007  0.4343510174627768  0.6881282704593784   T   T   T
  0.5000000000000007  0.8046381504196043  0.5569908780188456   T   T   T
  0.5000000000000007  0.1864183562269238  0.4430928936631090   T   T   T
  0.5000000000000007  0.5592706050287216  0.3144401561066461   T   T   T
  0.5000000000000007  0.9331553653940745  0.1945083054119181   T   T   T
 -0.0000000000000000  0.2657471849251359  0.0388074760811267   T   T   T
  0.5000000000000007  0.5034981270590104 -0.0000520880078314   T   T   T
 -0.0000000000000000  0.7179647467902072  0.9296541229503932   T   T   T
  0.5000000000000007  0.5913492269061874  0.8138559380557296   T   T   T
 -0.0000000000000000  0.0309749139034994  0.8390830985233259   T   T   T
  0.5000000000000007  0.9321204487532564  0.6916727451873856   T   T   T
  0.5000000000000007  0.2648586194356368  0.7812869365017431   T   T   T
 -0.0000000000000000  0.4344504682167069  0.6943023436805563   T   T   T
  0.5000000000000007  0.2960997408527390  0.5736520270381482   T   T   T
  0.5000000000000007  0.6168871138660148  0.6185755359351753   T   T   T
 -0.0000000000000000  0.8103437837794182  0.5608399525830987   T   T   T
  0.5000000000000007  0.6903878711601081  0.4306666846559000   T   T   T
  0.5000000000000007 -0.0045619025820821  0.4971939097207141   T   T   T
 -0.0000000000000000  0.1819776864890744  0.4389854950190439   T   T   T
  0.5000000000000007  0.0595229212852717  0.3038031672355529   T   T   T
  0.5000000000000007  0.3738998243056622  0.3839724032446263   T   T   T
 -0.0000000000000000  0.5583778174063126  0.3053939186525019   T   T   T
  0.5000000000000007  0.4041312224796743  0.1891219994095262   T   T   T
  0.5000000000000007  0.7427569611426948  0.2366107796255874   T   T   T
 -0.0000000000000000  0.9788761522585397  0.1756171538498084   T   T   T
  0.5000000000000007  0.8367722242030651  0.0566747455043442   T   T   T
