Sr Co O 
 1.0000000000000000
    -3.6801778965228542    0.0000000000000000    0.0000000000000000
     0.0000000000000000    3.9807588065485895    4.0155475309477762
     0.0000000000000000   15.9814749868482497  -16.1206502761823316
 Sr  Co  O  
   8   8  20
Selective dynamics
Direct
 -0.0000000000000000 -0.0291960895237087 -0.0030163477876660   T   T   T
 -0.0000000000000000  0.4643682627583139  0.8866010965339356   T   T   T
 -0.0000000000000000 -0.0769535401359581  0.7540115596539463   T   T   T
 -0.0000000000000000  0.5257339976927956  0.6192493873052988   T   T   T
 -0.0000000000000000  0.0318762451076980  0.4924188019451250   T   T   T
 -0.0000000000000000  0.5229260852822738  0.3681847429803206   T   T   T
 -0.0000000000000000  0.0230801174561539  0.2517491584371520   T   T   T
 -0.0000000000000000  0.5235443981264370  0.1289008673161659   T   T   T
  0.5000000000000002  0.4932385387372416  0.0016559258940809   T   T   T
  0.5000000000000002 -0.0341339624554392  0.8766317428027305   T   T   T
  0.5000000000000002  0.4592436647923982  0.7574497590298391   T   T   T
  0.5000000000000002  0.0304944984893403  0.6162411693806600   T   T   T
  0.5000000000000002  0.5310225414601351  0.4984482460459441   T   T   T
  0.5000000000000002  0.0229640723483212  0.3717984077373950   T   T   T
  0.5000000000000002  0.5188633197211338  0.2495085614060971   T   T   T
  0.5000000000000002 -0.0006664471984692  0.1274563475451714   T   T   T
 -0.0000000000000000  0.4420543449043463  0.0142319978464793   T   T   T
  0.5000000000000002  0.2243168556018481  0.9414747027730442   T   T   T
  0.5000000000000002  0.7217352779019729  0.9391875244798029   T   T   T
 -0.0000000000000000 -0.0221837524601540  0.8712834189735608   T   T   T
  0.5000000000000002  0.6758312369747089  0.8159258126393000   T   T   T
  0.5000000000000002  0.1820768489696931  0.7920759520385738   T   T   T
  0.5000000000000002  0.6346056234698788  0.6933406865174999   T   T   T
 -0.0000000000000000  0.0668405336227704  0.6476925519593378   T   T   T
  0.5000000000000002  0.7614609251837622  0.5590770534324069   T   T   T
  0.5000000000000002  0.2997563103838469  0.5576958509183020   T   T   T
  0.5000000000000002  0.3001446879048266  0.4423660362824355   T   T   T
  0.5000000000000002  0.7629855830987651  0.4437908014035237   T   T   T
 -0.0000000000000000  0.0266052918118207  0.3784763145131995   T   T   T
  0.5000000000000002  0.7683625235628725  0.3132071584759499   T   T   T
  0.5000000000000002  0.2678161985269968  0.3100554527557343   T   T   T
 -0.0000000000000000  0.5164854340475376  0.2467067196897579   T   T   T
  0.5000000000000002  0.2680087062471403  0.1763048773670015   T   T   T
  0.5000000000000002  0.7792231383564509  0.1873419164517772   T   T   T
 -0.0000000000000000  0.0598413096139717  0.1081366052824953   T   T   T
  0.5000000000000002  0.7576267138652457  0.0643390720822481   T   T   T
