Sr Co O 
 1.0000000000000000
    -3.8936302028920409    0.0000000000000000   -3.8936302028920418
     3.8143237887229238   -3.9504510477192363   -3.8143237887229229
    -3.8143237887229238   -3.9504510477192363    3.8143237887229229
 Sr  Co  O  
   4   4  10
Selective dynamics
Direct
  0.0000000000000000 -0.0048911944496725  0.0048911944496725   T   T   T
  0.5000000000000010  0.7548911944496735  0.2451088055503276   T   T   T
  0.0000000000000010  0.4951088055503290  0.5048911944496723   T   T   T
  0.5000000000000020  0.2548911944496738  0.7451088055503275   T   T   T
  0.4779334295054907  0.7456592443742254  0.7543407556257766   T   T   T
 -0.0220665704945104  0.5043407556257767 -0.0043407556257765   T   T   T
  0.5220665704945119  0.2456592443742242  0.2543407556257765   T   T   T
  0.0220665704945120  0.0043407556257775  0.4956592443742232   T   T   T
  0.7621139418845982  0.6553068080507477  0.8446931919492542   T   T   T
  0.4999999999999997  0.0145755178900868 -0.0145755178900868   T   T   T
  0.2621139418845982  0.5946931919492568  0.9053068080507450   T   T   T
  0.0000000000000007  0.7354244821099141  0.2645755178900870   T   T   T
  0.7500000000000008  0.3750000000000001  0.1249999999999996   T   T   T
  0.7378860581154035  0.0946931919492556  0.4053068080507454   T   T   T
  0.5000000000000009  0.5145755178900882  0.4854244821099130   T   T   T
  0.2378860581154036  0.1553068080507464  0.3446931919492541   T   T   T
  0.2500000000000014  0.8750000000000019  0.6250000000000000   T   T   T
  0.0000000000000013  0.2354244821099148  0.7645755178900863   T   T   T
