Sr Co O 
 1.0000000000000000
    -3.6554501846105678    0.0000000000000000    0.0000000000000000
     0.0000000000000000    4.1512243957603268    4.0138039642066685
     0.0000000000000000   12.3567975573838282  -11.9392516883616508
 Sr  Co  O  
   6   6  13
Selective dynamics
Direct
  0.0000000000000000 -0.1126799040952701 -0.0045807780035008   T   T   T
  0.0000000000000000  0.4665836406972409  0.8246303410877399   T   T   T
 -0.0000000000000000  0.0334163593027587  0.6753696589122606   T   T   T
 -0.0000000000000000  0.6126799040952680  0.5045807780035005   T   T   T
  0.0000000000000000  0.0026364777090533  0.3260566408548125   T   T   T
 -0.0000000000000000  0.4973635222909454  0.1739433591451873   T   T   T
  0.5000000000000001  0.4255804769733668 -0.0098988012063708   T   T   T
  0.5000000000000001 -0.0192552785449063  0.8394192500128584   T   T   T
  0.5000000000000001  0.5192552785449037  0.6605807499871423   T   T   T
  0.5000000000000001  0.0744195230266335  0.5098988012063709   T   T   T
  0.5000000000000001  0.4955031500734685  0.3304011480270680   T   T   T
  0.5000000000000001  0.0044968499265296  0.1695988519729317   T   T   T
  0.5000000000000001  0.1503903772582687  0.9423941494436916   T   T   T
  0.5000000000000001  0.6548236605183099  0.9076305672224491   T   T   T
  0.0000000000000000 -0.0779761650824406  0.8181986169569055   T   T   T
  0.5000000000000001  0.2499999999999994  0.7500000000000000   T   T   T
 -0.0000000000000000  0.5779761650824384  0.6818013830430952   T   T   T
  0.5000000000000001  0.3496096227417281  0.5576058505563097   T   T   T
  0.5000000000000001  0.8451763394816885  0.5923694327775515   T   T   T
  0.5000000000000001  0.8933515013146959  0.4263286302702103   T   T   T
  0.0000000000000000  0.4519241239846121  0.3705784948746255   T   T   T
  0.5000000000000001  0.2499999999999995  0.2500000000000002   T   T   T
  0.5000000000000001  0.7499999999999999  0.2500000000000002   T   T   T
 -0.0000000000000000  0.0480758760153871  0.1294215051253746   T   T   T
  0.5000000000000001  0.6066484986853050  0.0736713697297904   T   T   T
