Sr Co O 
 1.0000000000000000
    -4.2563767283666909    3.8328961398071910    0.1348037806823351
     4.2563767283666909    3.8328961398071915   -0.1348037806823350
     0.2693900727013883   -3.8328961398071910   -7.5721893228955084
 Sr  Co  O  
   4   4   8
Selective dynamics
Direct
  0.0133612123350575 -0.0431652382331408 -0.0103933954092894   T   T   T
  0.7410504987781759  0.7303501508182484  0.5078055781190562   T   T   T
  0.4725445726991913  0.4832449206591195 -0.0078055781190557   T   T   T
  0.2172281571761490  0.2737546077443476  0.5103933954092899   T   T   T
  0.8647144977544674  0.3647144977544671  0.7500000000000001   T   T   T
  0.5909900955353982  0.1425953081820348  0.2153073933835657   T   T   T
  0.3666344596413106  0.8666344596413105  0.7500000000000001   T   T   T
  0.1772879147984693  0.6256827021518336  0.2846926066164346   T   T   T
  0.0410352811132525  0.1176492514004482  0.7511246130188388   T   T   T
  0.3922330318114498  0.8211326029522991  0.1968153499487333   T   T   T
  0.6034495801152280  0.0642351819110019 -0.0201798362132445   T   T   T
  0.6165246383816093  0.5399106680944139  0.7488753869811607   T   T   T
  0.1130186144218029  0.6130186144218028  0.7500000000000001   T   T   T
  0.3344150181242476  0.8736294163284735  0.5201798362132447   T   T   T
  0.3311952138643122  0.3311952138643124  0.2500000000000002   T   T   T
  0.8743172530035657  0.4454176818627173  0.3031846500512673   T   T   T
