Sr Co O 
 1.0000000000000000
    -3.6492841100313966    0.0000000000000000    0.0000000000000000
     0.0000000000000000    4.2779453874952162    3.9009456046938977
     0.0000000000000000    4.2789694725197132   -7.7989397382630630
 Sr  Co  O  
   3   3   7
Selective dynamics
Direct
 -0.0000000000000000 -0.0606962772411115 -0.0111598175338755   T   T   T
 -0.0000000000000000  0.3296406814662153  0.6560057761115891   T   T   T
 -0.0000000000000000  0.7284584447850104  0.3603883910055589   T   T   T
  0.5000000000000011  0.4796224517122288 -0.0066956354306902   T   T   T
  0.5000000000000011  0.8259702591579171  0.6634610960579056   T   T   T
  0.5000000000000011  0.2151520255675102  0.3416359180111854   T   T   T
  0.5000000000000011  0.1727992658192656  0.9089701959372998   T   T   T
  0.5000000000000011  0.6164610698466233  0.8236555530992395   T   T   T
 -0.0000000000000000  0.8690228730294121  0.6838068537954670   T   T   T
  0.5000000000000011  0.5225835585617012  0.4884945778823180   T   T   T
  0.5000000000000011  0.0364482298265909  0.5038311950867144   T   T   T
 -0.0000000000000000  0.2006831036844563  0.2681117423170055   T   T   T
  0.5000000000000011  0.7305211342185066  0.1528274882384603   T   T   T
