Sr Co O 
 1.0000000000000000
     3.7722041950575380    0.0000000000000000    0.0000000000000000
     0.0000000000000000    3.8497614087798668    0.0000000000000000
     0.0000000000000000    0.0000000000000000   23.3196964883091837
 Sr  Co  O  
   6   6  12
Selective dynamics
Direct
  0.0000000000000000  0.0000000000000000  0.0014539738109287   T   T   T
  0.0000000000000000  0.0000000000000000  0.1554961305141896   T   T   T
  0.0000000000000000  0.0000000000000000  0.3340502359320192   T   T   T
  0.0000000000000000  0.0000000000000000  0.4998791516429551   T   T   T
  0.0000000000000000  0.0000000000000000  0.6681607135341130   T   T   T
  0.0000000000000000  0.0000000000000000  0.8424097365770179   T   T   T
  0.4999999999999999  0.5000000000000001  0.0826051250443660   T   T   T
  0.4999999999999999  0.5000000000000001  0.2484679934418574   T   T   T
  0.4999999999999999  0.5000000000000001  0.4163623302555166   T   T   T
  0.4999999999999999  0.5000000000000001  0.5830667796362634   T   T   T
  0.4999999999999999  0.5000000000000001  0.7498332103375355   T   T   T
  0.4999999999999999  0.5000000000000001  0.9171072639884137   T   T   T
  0.0000000000000000  0.5000000000000001  0.0881930284959205   T   T   T
  0.4999999999999999  0.0000000000000000  0.0803947384780249   T   T   T
  0.4999999999999999  0.0000000000000000  0.2325868550405042   T   T   T
  0.4999999999999999  0.5000000000000001  0.3323201153673032   T   T   T
  0.4999999999999999  0.0000000000000000  0.4149805563854079   T   T   T
  0.4999999999999999  0.5000000000000001  0.4986119794007872   T   T   T
  0.0000000000000000  0.5000000000000001  0.5821019118009585   T   T   T
  0.4999999999999999  0.5000000000000001  0.6659180367450062   T   T   T
  0.4999999999999999  0.0000000000000000  0.7481407799783838   T   T   T
  0.4999999999999999  0.5000000000000001  0.8301784360488043   T   T   T
  0.0000000000000000  0.5000000000000001  0.9326858703567553   T   T   T
  0.4999999999999999  0.0000000000000000  0.9283283887361268   T   T   T
