Sr Co O 
 1.0000000000000000
    -3.5913381483408959    0.0000000000000000    0.0000000000000000
     0.0000000000000000    4.3312606261867783    3.8864303022698832
     0.0000000000000000   13.0834607569109007  -11.7366649157993539
 Sr  Co  O  
   6   6  13
Selective dynamics
Direct
 -0.0000000000000000 -0.0523852349947297  0.0006873166030419   T   T   T
 -0.0000000000000000  0.5100725999059975  0.8196038188100759   T   T   T
 -0.0000000000000000  0.0603476148008086  0.6554465758453537   T   T   T
 -0.0000000000000000  0.4661102538688979  0.4812977037029355   T   T   T
 -0.0000000000000000  0.0113267006813864  0.3283460743902359   T   T   T
 -0.0000000000000000  0.5519169040541627  0.1751251137635172   T   T   T
  0.4999999999999997  0.4590179004905008 -0.0068941937064518   T   T   T
  0.4999999999999997 -0.0150363451536915  0.8148600725560612   T   T   T
  0.4999999999999997  0.5285964916033169  0.6668152377343284   T   T   T
  0.4999999999999997 -0.0504306829035996  0.4890874905350175   T   T   T
  0.4999999999999997  0.5104342869559713  0.3279127581371509   T   T   T
  0.4999999999999997  0.0638449889897456  0.1681264989803977   T   T   T
 -0.0000000000000000  0.3823066587025113 -0.0418608369023654   T   T   T
 -0.0000000000000000 -0.0849733821207933  0.8582617705496158   T   T   T
  0.4999999999999997  0.2984390801062890  0.7610274793518477   T   T   T
  0.4999999999999997  0.3399657226014658  0.5914737614834168   T   T   T
  0.4999999999999997  0.7874957137440673  0.7211266838784602   T   T   T
 -0.0000000000000000 -0.1073551848630648  0.5352566630526413   T   T   T
  0.4999999999999997  0.7327198413937677  0.4129410295660434   T   T   T
  0.4999999999999997  0.2171342714777061  0.4190193540348848   T   T   T
 -0.0000000000000000  0.5036387411669818  0.3281656303209185   T   T   T
  0.4999999999999997  0.2871024283198671  0.2415088445882863   T   T   T
  0.4999999999999997  0.7929694981318979  0.2373731072823417   T   T   T
 -0.0000000000000000  0.1101317790023617  0.1254954817319222   T   T   T
  0.4999999999999997  0.6966092412637297  0.0564632609083095   T   T   T
