Sr Co O 
 1.0000000000000000
    -3.6766319222427635    0.0000000000000000    0.0000000000000000
     0.0000000000000000    3.9876732533820216    3.9876732533820203
     0.0000000000000000   11.9570832231196196  -11.9570832231196196
 Sr  Co  O  
   6   6  15
Selective dynamics
Direct
 -0.0000000000000000 -0.0275274040375817 -0.0007733700095215   T   T   T
 -0.0000000000000000  0.4658853885037205  0.8333333333333348   T   T   T
  0.0000000000000000 -0.0275274040375811  0.6674400366761887   T   T   T
  0.0000000000000000  0.5273293495949727  0.4940918894649814   T   T   T
 -0.0000000000000000  0.0309160374455005  0.3333333333333338   T   T   T
 -0.0000000000000000  0.5273293495949751  0.1725747772016862   T   T   T
  0.5000000000000001  0.5018677612018168 -0.0018713903188048   T   T   T
  0.5000000000000001 -0.0254700359732792  0.8333333333333343   T   T   T
  0.5000000000000001  0.5018677612018165  0.6685380569854728   T   T   T
  0.5000000000000001  0.0078894364427653  0.4977620545392272   T   T   T
  0.5000000000000001  0.5226254572625113  0.3333333333333339   T   T   T
  0.5000000000000001  0.0078894364427663  0.1689046121274401   T   T   T
  0.0000000000000000  0.4375073025421650  0.0112276105772964   T   T   T
  0.5000000000000001  0.2016882003798895  0.9115708146775229   T   T   T
  0.5000000000000001  0.7365366924184491  0.9092156367052115   T   T   T
  0.5000000000000001  0.7365366924184487  0.7574510299614564   T   T   T
  0.5000000000000001  0.2016882003798891  0.7550958519891446   T   T   T
 -0.0000000000000000  0.4375073025421631  0.6554390560893710   T   T   T
  0.5000000000000001  0.7542586348535955  0.5846190492954915   T   T   T
  0.0000000000000000  0.0633121260604488  0.5216441970377463   T   T   T
  0.5000000000000001  0.7759311785193745  0.4165671256982535   T   T   T
  0.5000000000000001  0.2701578962911751  0.4261733645242689   T   T   T
 -0.0000000000000000  0.5081405609231220  0.3333333333333339   T   T   T
  0.5000000000000001  0.2701578962911759  0.2404933021423983   T   T   T
  0.5000000000000001  0.7759311785193725  0.2500995409684149   T   T   T
 -0.0000000000000000  0.0633121260604503  0.1450224696289209   T   T   T
  0.5000000000000001  0.7542586348535966  0.0820476173711762   T   T   T
