Sr Co O 
 1.0000000000000000
    -3.6209415080706711    0.0000000000000000    0.0000000000000000
     0.0000000000000000    3.8450599595103245    4.2779659370131364
     0.0000000000000000   11.5258202951492130  -12.8647707655042591
 Sr  Co  O  
   6   6  13
Selective dynamics
Direct
 -0.0000000000000000 -0.0579357886389118 -0.0071948799336417   T   T   T
 -0.0000000000000000  0.4481556218237470  0.8251548017789482   T   T   T
 -0.0000000000000000 -0.0874528631494193  0.6725254722618641   T   T   T
 -0.0000000000000000  0.5082478732266743  0.4948140690122708   T   T   T
 -0.0000000000000000  0.1135066876221636  0.3166134132853308   T   T   T
 -0.0000000000000000  0.5679637259944782  0.1649621210928179   T   T   T
  0.5000000000000000  0.4935411813476343 -0.0073649988239773   T   T   T
  0.5000000000000000 -0.0690667965518117  0.8247516529394137   T   T   T
  0.5000000000000000  0.3884803199595353  0.6638193083673971   T   T   T
  0.5000000000000000  0.0089526503152804  0.4946993355190982   T   T   T
  0.5000000000000000  0.6205647295016363  0.3241569176081766   T   T   T
  0.5000000000000000  0.0537440691297033  0.1608797077912295   T   T   T
 -0.0000000000000000  0.3805718499164600 -0.0145749628961369   T   T   T
  0.5000000000000000  0.7040409046212782  0.9061545835876632   T   T   T
 -0.0000000000000000  0.0006060565717036  0.8455370472220189   T   T   T
  0.5000000000000000  0.6724722624453842  0.7371103591105711   T   T   T
  0.5000000000000000  0.1735584950576001  0.7486102985599203   T   T   T
 -0.0000000000000000  0.3314247736291882  0.6202810327507640   T   T   T
  0.5000000000000000  0.7839609529839984  0.5579072781229923   T   T   T
  0.5000000000000000  0.2318209430620846  0.4305341769345620   T   T   T
 -0.0000000000000000  0.6671788143463830  0.3667269278800325   T   T   T
  0.5000000000000000  0.3463708641232048  0.2453979097331084   T   T   T
  0.5000000000000000  0.8508731898489955  0.2470736552753970   T   T   T
 -0.0000000000000000  0.1186461742596061  0.1359406444837876   T   T   T
  0.5000000000000000  0.7497732963713399  0.0788173910731972   T   T   T
