Sr Co O 
 1.0000000000000000
    -3.6768898147234141    0.0000000000000000    0.0000000000000000
     0.0000000000000000    4.4501861023636140    3.8933804900539215
     0.0000000000000000   13.0023772509006026  -11.3035069387892335
 Sr  Co  O  
   6   6  13
Selective dynamics
Direct
 -0.0000000000000000  0.0436406584282684  0.0126668889493344   T   T   T
 -0.0000000000000000  0.4592315270023086  0.8513327450632900   T   T   T
  0.0000000000000000  0.0407684729976994  0.6486672549367103   T   T   T
  0.0000000000000000  0.4563593415717320  0.4873331110506644   T   T   T
 -0.0000000000000000 -0.0281277177827939  0.3315755088948769   T   T   T
  0.0000000000000000  0.5281277177827970  0.1684244911051228   T   T   T
  0.4999999999999993  0.5914374360680427 -0.0051293782974753   T   T   T
  0.4999999999999993  0.0144866134471717  0.8361143524858360   T   T   T
  0.4999999999999993  0.4855133865528387  0.6638856475141641   T   T   T
  0.4999999999999993 -0.0914374360680401  0.5051293782974755   T   T   T
  0.4999999999999993  0.4793207321287353  0.3262771661106662   T   T   T
  0.4999999999999993  0.0206792678712671  0.1737228338893333   T   T   T
 -0.0000000000000000  0.4861961713821648  0.0046678734659987   T   T   T
  0.4999999999999993  0.1935080934014248  0.9170562962727478   T   T   T
  0.4999999999999993  0.7147509855816492  0.8744519620640963   T   T   T
  0.4999999999999993  0.2500000000000049  0.7500000000000007   T   T   T
  0.4999999999999993  0.3064919065985873  0.5829437037272525   T   T   T
  0.4999999999999993  0.7852490144183585  0.6255480379359021   T   T   T
  0.0000000000000000  0.0138038286178412  0.4953321265340013   T   T   T
  0.4999999999999993  0.7153264265657427  0.4198727515226505   T   T   T
  0.0000000000000000  0.4080025686921857  0.3497511961317171   T   T   T
  0.4999999999999993  0.2500000000000023  0.2500000000000002   T   T   T
  0.4999999999999993  0.7500000000000030  0.2499999999999993   T   T   T
 -0.0000000000000000  0.0919974313078172  0.1502488038682828   T   T   T
  0.4999999999999993  0.7846735734342642  0.0801272484773487   T   T   T
