Sr Co O 
 1.0000000000000000
     3.7631081144169527    0.0000000000000000    0.0000000000000000
     0.0000000000000000    3.8315635194211977    0.0000000000000000
     0.0000000000000000    0.0000000000000000   24.2826476753466025
 Sr  Co  O  
   6   6  12
Selective dynamics
Direct
  0.0000000000000000  0.0000000000000000 -0.0105563587867852   T   T   T
  0.0000000000000000  0.0000000000000000  0.1527039901127824   T   T   T
  0.0000000000000000  0.0000000000000000  0.3462609486396431   T   T   T
  0.0000000000000000  0.0000000000000000  0.4993576079950657   T   T   T
  0.0000000000000000  0.0000000000000000  0.6701417980659634   T   T   T
  0.0000000000000000  0.0000000000000000  0.8378548527108157   T   T   T
  0.5000000000000006  0.5000000000000004  0.0771979976868247   T   T   T
  0.5000000000000006  0.5000000000000004  0.2410146716409721   T   T   T
  0.5000000000000006  0.5000000000000004  0.4277623451054398   T   T   T
  0.5000000000000006  0.5000000000000004  0.5896442736467272   T   T   T
  0.5000000000000006  0.5000000000000004  0.7503601227736756   T   T   T
  0.5000000000000006  0.5000000000000004  0.9116789494546383   T   T   T
  0.5000000000000006  0.0000000000000000  0.0709878714954763   T   T   T
  0.5000000000000006  0.5000000000000004  0.1661442524414999   T   T   T
  0.5000000000000006  0.5000000000000004  0.3126005490877057   T   T   T
  0.0000000000000000  0.5000000000000004  0.4173661980039144   T   T   T
  0.5000000000000006  0.0000000000000000  0.4191559336033753   T   T   T
  0.5000000000000006  0.5000000000000004  0.5124235773311712   T   T   T
  0.0000000000000000  0.5000000000000004  0.5916869521427028   T   T   T
  0.5000000000000006  0.5000000000000004  0.6705976703004236   T   T   T
  0.5000000000000006  0.0000000000000000  0.7496670204440656   T   T   T
  0.5000000000000006  0.5000000000000004  0.8278395780922114   T   T   T
  0.0000000000000000  0.5000000000000004  0.9292025714796354   T   T   T
  0.5000000000000006  0.0000000000000000  0.9222399420451648   T   T   T
