Sr Co O 
 1.0000000000000000
    -3.7390025805271621    0.0000000000000000    0.0000000000000000
     0.0000000000000000    3.9020638039750981    4.0430810550484813
     0.0000000000000000   11.7111228239913885  -12.1364405469709986
 Sr  Co  O  
   6   6  15
Selective dynamics
Direct
 -0.0000000000000000 -0.0811717275786537  0.0007471993289477   T   T   T
 -0.0000000000000000  0.4531463539770260  0.8333103147510144   T   T   T
 -0.0000000000000000  0.0618976600994894  0.6592575494196663   T   T   T
 -0.0000000000000000  0.5177375939280187  0.4894222641857223   T   T   T
 -0.0000000000000000  0.0078648725335221  0.3382253061199895   T   T   T
 -0.0000000000000000  0.5095212682157206  0.1755003610395388   T   T   T
  0.4999999999999993  0.4724512521244951 -0.0005365775503877   T   T   T
  0.4999999999999993 -0.0380999637804790  0.8366778437624038   T   T   T
  0.4999999999999993  0.5529207552981318  0.6539100876794095   T   T   T
  0.4999999999999993  0.0249265945234850  0.4984630137386639   T   T   T
  0.4999999999999993  0.5081541543047730  0.3323364997385200   T   T   T
  0.4999999999999993 -0.0108703172491733  0.1704347940898685   T   T   T
 -0.0000000000000000  0.3671745814777205 -0.0079689416351285   T   T   T
  0.4999999999999993  0.6967286633793266  0.9043463625869230   T   T   T
 -0.0000000000000000 -0.0224477958325208  0.8466788654963606   T   T   T
  0.4999999999999993  0.1995867409700339  0.7664983030472902   T   T   T
 -0.0000000000000000  0.5689086065229929  0.6910350534002675   T   T   T
  0.4999999999999993  0.2970102915101069  0.5828778447735985   T   T   T
  0.4999999999999993  0.8198181315402836  0.5938845113333897   T   T   T
 -0.0000000000000000  0.0350319379145998  0.5021342809944660   T   T   T
  0.4999999999999993  0.7578622697145569  0.4232075906377145   T   T   T
  0.4999999999999993  0.2542048941266680  0.4113661025722031   T   T   T
 -0.0000000000000000  0.5070228806068672  0.3309944094209418   T   T   T
  0.4999999999999993  0.2656585856988376  0.2355613588179380   T   T   T
  0.4999999999999993  0.7632675705811173  0.2529106834753748   T   T   T
 -0.0000000000000000  0.0354960223851923  0.1462498539613593   T   T   T
  0.4999999999999993  0.7261977685559177  0.0824749676536058   T   T   T
