Sr Co O 
 1.0000000000000000
    -3.7048166604061037    0.0000000000000000    0.0000000000000000
     0.0000000000000000    4.0877619865792294    4.0877619865792267
     0.0000000000000000   12.1312470576778324  -12.1312470576778235
 Sr  Co  O  
   6   6  13
Selective dynamics
Direct
 -0.0000000000000000  0.0000000000000000  0.0043053686654136   T   T   T
 -0.0000000000000000  0.5000000000000020  0.8277692660467472   T   T   T
 -0.0000000000000000  0.0000000000000022  0.6864261813125403   T   T   T
 -0.0000000000000000  0.5000000000000024  0.5124270431509366   T   T   T
 -0.0000000000000000  0.0000000000000009  0.3033877969519154   T   T   T
 -0.0000000000000000  0.5000000000000013  0.1587572478201103   T   T   T
  0.5000000000000002  0.5000000000000007 -0.0070895104638830   T   T   T
  0.5000000000000002  0.0000000000000004  0.8407828669461054   T   T   T
  0.5000000000000002  0.5000000000000020  0.6732625570431912   T   T   T
  0.5000000000000002  0.0000000000000020  0.5304860779904146   T   T   T
  0.5000000000000002  0.5000000000000016  0.3251280068613180   T   T   T
  0.5000000000000002  0.0000000000000002  0.1582417332968729   T   T   T
  0.5000000000000002  0.2739931270975257  0.0698326031760499   T   T   T
  0.5000000000000002  0.2541073308661440  0.9160188764528100   T   T   T
  0.5000000000000002  0.7458926691338587  0.9160188764528098   T   T   T
  0.5000000000000002  0.7732229010833837  0.7595553702562990   T   T   T
  0.5000000000000002  0.2267770989166229  0.7595553702562988   T   T   T
 -0.0000000000000000  0.5000000000000016  0.6724714486478184   T   T   T
  0.5000000000000002  0.2757590287576913  0.5658494460681309   T   T   T
  0.5000000000000002  0.7242409712423105  0.5658494460681307   T   T   T
 -0.0000000000000000  0.5000000000000018  0.3699183069658224   T   T   T
  0.5000000000000002  0.2474232214879902  0.2498170799234428   T   T   T
  0.5000000000000002  0.7525767785120127  0.2498170799234426   T   T   T
 -0.0000000000000000  0.0000000000000003  0.1549121641297761   T   T   T
  0.5000000000000002  0.7260068729024759  0.0698326031760503   T   T   T
