Sr Co O 
 1.0000000000000000
    -3.8480497917794856    0.0000000000000000    0.0000000000000000
     0.0000000000000000    3.8237586776003596    3.9002305221912761
     0.0000000000000000   11.3345963397992495  -11.5637364491052494
 Sr  Co  O  
   6   6  13
Selective dynamics
Direct
 -0.0000000000000000 -0.0217296418014476  0.0007368765534878   T   T   T
 -0.0000000000000000  0.4064450004448154  0.8324261530851848   T   T   T
 -0.0000000000000000 -0.0412543495226488  0.6635177507554521   T   T   T
 -0.0000000000000000  0.5104886844654292  0.5015865956570275   T   T   T
 -0.0000000000000000  0.0666753005785361  0.3292764730055035   T   T   T
 -0.0000000000000000  0.5567285840540740  0.1725870474699881   T   T   T
  0.4999999999999998  0.4871770621580327  0.0007257207223716   T   T   T
  0.4999999999999998 -0.0383137294591663  0.8317336296024314   T   T   T
  0.4999999999999998  0.4677455173493455  0.6635713188415868   T   T   T
  0.4999999999999998  0.0134462700202079  0.5017492776454243   T   T   T
  0.4999999999999998  0.5362413616986320  0.3344300616818741   T   T   T
  0.4999999999999998  0.0261391076511005  0.1674703559725703   T   T   T
 -0.0000000000000000  0.4884028338521437 -0.0028566256977747   T   T   T
  0.4999999999999998  0.2076939898810856  0.9235287604311654   T   T   T
 -0.0000000000000000 -0.1414722605375328  0.8304667033052556   T   T   T
  0.4999999999999998  0.1968083305813471  0.7391327413486001   T   T   T
 -0.0000000000000000  0.4676584865798611  0.6655098055273945   T   T   T
  0.4999999999999998  0.7368243116312826  0.5842155737144854   T   T   T
 -0.0000000000000000  0.0153388186061944  0.5051967799544141   T   T   T
  0.4999999999999998  0.2815159281990480  0.4245084811796566   T   T   T
 -0.0000000000000000  0.5774962154991126  0.3497347512314276   T   T   T
  0.4999999999999998  0.3106926665297200  0.2366129891215173   T   T   T
  0.4999999999999998  0.8124265237098239  0.2652803847142249   T   T   T
 -0.0000000000000000  0.0652957800906883  0.1516849357688410   T   T   T
  0.4999999999999998  0.7615292189546342  0.0771734256430446   T   T   T
