Sr Co O 
 1.0000000000000000
    -3.9466714778626910    0.0000000000000000   -3.7862449482353133
     3.8450637334131881   -3.9312299840637515   -3.6865090389079720
    -3.8450637334131881   -3.9312299840637523    3.6865090389079720
 Sr  Co  O  
   4   4   9
Selective dynamics
Direct
  0.0073134001289024  0.0008930263627948  0.0168396171550081   T   T   T
  0.4926865998710968  0.7668396171550084  0.2508930263627957   T   T   T
  0.0073134001289022  0.4831603828449922  0.4991069736372060   T   T   T
  0.4926865998710976  0.2491069736372064  0.7331603828449923   T   T   T
  0.5087132176089292  0.7531863272939529  0.7468136727060488   T   T   T
 -0.0087132176089304  0.4968136727060475  0.0031863272939527   T   T   T
  0.4996111195754445  0.2550691225959537  0.2449308774040468   T   T   T
  0.0003888804245553 -0.0050691225959527  0.5050691225959534   T   T   T
  0.7499999999999988  0.6250000000000011  0.8750000000000003   T   T   T
  0.5307797186903302  0.0002609859513712 -0.0303042642121699   T   T   T
  0.2769740550466770  0.4019236851050624  0.0980763148949380   T   T   T
 -0.0307797186903311  0.7196957357878305  0.2502609859513717   T   T   T
  0.7499999999999992  0.1250000000000008  0.3749999999999996   T   T   T
  0.5307797186903297  0.5303042642121704  0.4997390140486299   T   T   T
  0.2500000000000000  0.1250000000000004  0.3750000000000001   T   T   T
  0.2230259449533221  0.8480763148949381  0.6519236851050634   T   T   T
 -0.0307797186903303  0.2497390140486300  0.7803042642121699   T   T   T
