Sr Co O 
 1.0000000000000000
    -3.4924120686391316    0.0000000000000000    0.0000000000000000
     0.0000000000000000    4.4631411567178478    4.3014034427660839
     0.0000000000000000   12.9115373982075692  -12.4188957972806833
 Sr  Co  O  
   6   6  12
Selective dynamics
Direct
 -0.0000000000000000 -0.1025706758989725 -0.0043098081097896   T   T   T
 -0.0000000000000000  0.3396754370669541  0.8646668490064869   T   T   T
 -0.0000000000000000  0.0857356911547244  0.6756542053458159   T   T   T
 -0.0000000000000000  0.4730952867799009  0.4638876336230305   T   T   T
 -0.0000000000000000 -0.0606299268342712  0.3433416805158025   T   T   T
 -0.0000000000000000  0.6462656825660028  0.1739449636749375   T   T   T
  0.5000000000000004  0.3533179297177700  0.0398124556174306   T   T   T
  0.5000000000000004 -0.1901317578717966  0.8215127146711075   T   T   T
  0.5000000000000004  0.5493620124818199  0.7197788804359507   T   T   T
  0.5000000000000004  0.0202556575534732  0.4982307944602317   T   T   T
  0.5000000000000004  0.4249968989505002  0.3153529013554726   T   T   T
  0.5000000000000004  0.1299245494213097  0.1653205738228788   T   T   T
  0.5000000000000004  0.1894227283352717  0.9470583188270465   T   T   T
 -0.0000000000000000 -0.2399676069511118  0.8641441715123782   T   T   T
  0.5000000000000004  0.8344726149878758  0.7100415005223411   T   T   T
  0.5000000000000004  0.2800182806689741  0.7576655747874957   T   T   T
 -0.0000000000000000  0.1196272301347086  0.5432479209984917   T   T   T
  0.5000000000000004  0.7543859915547301  0.4477437765286294   T   T   T
  0.5000000000000004  0.2201401910349841  0.3998571730780660   T   T   T
 -0.0000000000000000  0.5441474588371662  0.3254662124070822   T   T   T
  0.5000000000000004  0.3952677315894649  0.2122949629030543   T   T   T
  0.5000000000000004  0.8956439410935830  0.2345392159940191   T   T   T
 -0.0000000000000000  0.1807957109591266  0.0925889067651969   T   T   T
  0.5000000000000004  0.6567488252878700  0.0548250101450941   T   T   T
