Sr Co O 
 1.0000000000000000
    -3.5615180650303446    0.0000000000000000    0.0000000000000000
     0.0000000000000000    4.4585948389392476    4.1026363289895471
     0.0000000000000000   12.9311147976658525  -11.8827592841577800
 Sr  Co  O  
   6   6  13
Selective dynamics
Direct
 -0.0000000000000000 -0.0142532108320730  0.0041579828980449   T   T   T
 -0.0000000000000000  0.3436361896009514  0.8374878744347536   T   T   T
 -0.0000000000000000 -0.1195358003436319  0.6713699059224625   T   T   T
 -0.0000000000000000  0.4436815653583731  0.4940267840852626   T   T   T
 -0.0000000000000000  0.1864839838626378  0.3171361612966593   T   T   T
 -0.0000000000000000  0.6733362270735470  0.1852983476458279   T   T   T
  0.4999999999999998  0.5096875665993247  0.0049240473727214   T   T   T
  0.4999999999999998 -0.1227372612951034  0.8230823639510270   T   T   T
  0.4999999999999998  0.4051431751407388  0.6809053372752425   T   T   T
  0.4999999999999998 -0.0151265092063765  0.4916605699650480   T   T   T
  0.4999999999999998  0.6878235170333699  0.3470368781486026   T   T   T
  0.4999999999999998  0.1451399248370435  0.1693234413702491   T   T   T
 -0.0000000000000000  0.4317729670990202 -0.0292729320245068   T   T   T
  0.4999999999999998  0.0614014576983261  0.8992307079937975   T   T   T
  0.4999999999999998  0.6098000722444982  0.7787287206913803   T   T   T
  0.4999999999999998  0.0973391550682040  0.7313098792346064   T   T   T
 -0.0000000000000000  0.4830326316253757  0.6404772927788149   T   T   T
 -0.0000000000000000  0.0187643749499627  0.5404298804067991   T   T   T
  0.4999999999999998  0.7068181447180176  0.4575645778951660   T   T   T
  0.4999999999999998  0.2296668971167927  0.4230415222828522   T   T   T
 -0.0000000000000000  0.5928922055746010  0.3400303231100881   T   T   T
  0.4999999999999998  0.3892837763607243  0.2273202797015526   T   T   T
  0.4999999999999998  0.9105520600384097  0.2613442464487509   T   T   T
 -0.0000000000000000  0.1047445469307478  0.1345411231255782   T   T   T
  0.4999999999999998  0.7406523893945277  0.0688447721391269   T   T   T
