Sr Co O 
 1.0000000000000000
    -3.6527524532769191    0.0000000000000000    0.0000000000000000
     0.0000000000000000    4.0711800159719909    4.0053120572008618
     0.0000000000000000   12.1856984014963956  -11.9864987439158508
 Sr  Co  O  
   6   6  14
Selective dynamics
Direct
 -0.0000000000000000 -0.0998719982896265 -0.0055002213478485   T   T   T
 -0.0000000000000000  0.4388009734202945  0.8274318869222670   T   T   T
 -0.0000000000000000  0.0293866080197910  0.6703833174305016   T   T   T
 -0.0000000000000000  0.5342155783791309  0.4935412622126051   T   T   T
 -0.0000000000000000  0.0399283399519709  0.3351357011017854   T   T   T
 -0.0000000000000000  0.5424031365686196  0.1781564915151822   T   T   T
  0.4999999999999996  0.4380650738847455 -0.0077868123622367   T   T   T
  0.4999999999999996 -0.0445260993135336  0.8385685352085719   T   T   T
  0.4999999999999996  0.5248114126512639  0.6534525058978548   T   T   T
  0.4999999999999996  0.0346059096588872  0.5032864061919541   T   T   T
  0.4999999999999996  0.5394243759776627  0.3330573697795575   T   T   T
  0.4999999999999996  0.0459723429132755  0.1707863286148357   T   T   T
  0.4999999999999996  0.1615256374494186  0.9414311976103950   T   T   T
  0.4999999999999996  0.6606097299015722  0.9054373996471961   T   T   T
 -0.0000000000000000 -0.0907280279725309  0.8236825647897248   T   T   T
  0.4999999999999996  0.1992314261602479  0.7615034637767892   T   T   T
 -0.0000000000000000  0.5561750821409965  0.6852391720100162   T   T   T
  0.4999999999999996  0.2655020778132127  0.5795141947306499   T   T   T
  0.4999999999999996  0.8100557965738902  0.5840519763167636   T   T   T
  0.4999999999999996  0.8069322387711980  0.4296837568917956   T   T   T
  0.4999999999999996  0.2622857363216859  0.4265678861804753   T   T   T
 -0.0000000000000000  0.5427799120160179  0.3407666465352822   T   T   T
  0.4999999999999996  0.2910137096930414  0.2470886505073279   T   T   T
  0.4999999999999996  0.8009850696503443  0.2476991546824814   T   T   T
 -0.0000000000000000  0.0757246182098325  0.1301384923224286   T   T   T
  0.4999999999999996  0.6346911823691077  0.0733493773460769   T   T   T
