Sr Co O 
 1.0000000000000000
     3.6915248149262854   -0.0000000000000000    0.0000000000000000
     0.0000000000000000    3.8535188038881243    0.0000000000000000
     0.0000000000000000    0.0000000000000000   24.9336488144048225
 Sr  Co  O  
   6   6  12
Selective dynamics
Direct
  0.0000000000000000  0.0000000000000000 -0.0190143538540338   T   T   T
 -0.0000000000000000  0.0000000000000000  0.1856810205207005   T   T   T
  0.0000000000000000 -0.0000000000000000  0.3352146065941831   T   T   T
 -0.0000000000000000 -0.0000000000000000  0.4988251834907695   T   T   T
  0.0000000000000000  0.0000000000000000  0.6678414831758989   T   T   T
  0.0000000000000000  0.0000000000000000  0.8314520600724832   T   T   T
  0.5000000000000003  0.5000000000000003  0.0833333333333333   T   T   T
  0.5000000000000003  0.5000000000000003  0.2653767786853327   T   T   T
  0.5000000000000003  0.5000000000000003  0.4242648790764857   T   T   T
  0.5000000000000003  0.5000000000000003  0.5833333333333331   T   T   T
  0.5000000000000003  0.5000000000000003  0.7424017875901809   T   T   T
  0.5000000000000003  0.5000000000000003  0.9012898879813336   T   T   T
  0.5000000000000003  0.5000000000000003  0.0126780429246818   T   T   T
  0.5000000000000003  0.5000000000000003  0.1539886237419849   T   T   T
  0.0000000000000000  0.5000000000000003  0.2561081305691816   T   T   T
  0.5000000000000003  0.0000000000000000  0.2580972330066325   T   T   T
  0.5000000000000003  0.5000000000000003  0.3498429013739635   T   T   T
  0.5000000000000003  0.0000000000000000  0.4292491736425882   T   T   T
  0.5000000000000003  0.5000000000000003  0.5107695778063813   T   T   T
  0.5000000000000003  0.5000000000000003  0.6558970888602861   T   T   T
  0.5000000000000003 -0.0000000000000000  0.7374174930240792   T   T   T
  0.5000000000000003  0.5000000000000003  0.8168237652927043   T   T   T
 -0.0000000000000000  0.5000000000000003  0.9105585360974860   T   T   T
  0.5000000000000003  0.0000000000000000  0.9085694336600347   T   T   T
