Sr Co O 
 1.0000000000000000
     3.8466283656802744    0.0000000000000000    0.0000000000000000
     0.0000000000000000    3.7973134114905185    0.0000000000000000
     0.0000000000000000    0.0000000000000000   24.8119270693540201
 Sr  Co  O  
   6   6  12
Selective dynamics
Direct
  0.0000000000000000  0.0000000000000000 -0.0100758334278786   T   T   T
  0.0000000000000000  0.0000000000000000  0.1811635130772084   T   T   T
  0.0000000000000000  0.0000000000000000  0.3235880979632930   T   T   T
  0.0000000000000000  0.0000000000000000  0.5122306523543190   T   T   T
  0.0000000000000000  0.0000000000000000  0.6544580230679820   T   T   T
  0.0000000000000000  0.0000000000000000  0.8455882968897362   T   T   T
  0.5000000000000002  0.5000000000000000  0.0882466158908315   T   T   T
  0.5000000000000002  0.5000000000000000  0.2526993813378741   T   T   T
  0.5000000000000002  0.5000000000000000  0.4156785351448710   T   T   T
  0.5000000000000002  0.5000000000000000  0.5790860830170713   T   T   T
  0.5000000000000002  0.5000000000000000  0.7493442531131166   T   T   T
  0.5000000000000002  0.5000000000000000  0.9166626619764883   T   T   T
  0.5000000000000002  0.5000000000000000  0.0147820782086638   T   T   T
  0.5000000000000002  0.0000000000000000  0.1178368790217622   T   T   T
  0.0000000000000000  0.5000000000000000  0.2454421864228602   T   T   T
  0.5000000000000002  0.0000000000000000  0.2605304661721319   T   T   T
  0.0000000000000000  0.5000000000000000  0.3891720777902543   T   T   T
  0.5000000000000002  0.5000000000000000  0.4898272064595441   T   T   T
  0.0000000000000000  0.5000000000000000  0.5915732905682241   T   T   T
  0.5000000000000002  0.0000000000000000  0.5842601676427887   T   T   T
  0.5000000000000002  0.0000000000000000  0.7220607319117986   T   T   T
  0.5000000000000002  0.5000000000000000  0.8232704516712949   T   T   T
  0.0000000000000000  0.5000000000000000  0.9179065587239180   T   T   T
  0.5000000000000002  0.0000000000000000  0.9180009923772436   T   T   T
