Sr Co O 
 1.0000000000000000
    -3.6594562015767043    0.0000000000000000    0.0000000000000000
     0.0000000000000000    4.1062818121535356    4.0512289432261932
     0.0000000000000000   12.1413395995595046  -11.9715530963287673
 Sr  Co  O  
   6   6  13
Selective dynamics
Direct
 -0.0000000000000000 -0.0911622626746837 -0.0048299254032559   T   T   T
 -0.0000000000000000  0.4650451229151906  0.8284102261364238   T   T   T
 -0.0000000000000000  0.0316527614032763  0.6689571150198366   T   T   T
 -0.0000000000000000  0.5542373017585525  0.5172619469251081   T   T   T
 -0.0000000000000000  0.0400258846300178  0.3229634841169799   T   T   T
 -0.0000000000000000  0.5232278536144225  0.1752434704848304   T   T   T
  0.4999999999999994  0.4446375079326733 -0.0070651485570921   T   T   T
  0.4999999999999994 -0.0193155662160783  0.8386595570374804   T   T   T
  0.4999999999999994  0.5097232126400472  0.6666532871776304   T   T   T
  0.4999999999999994  0.0284670975456722  0.5072340651830277   T   T   T
  0.4999999999999994  0.5286178432131320  0.3318495253733921   T   T   T
  0.4999999999999994  0.0292172843021245  0.1682713177727443   T   T   T
  0.4999999999999994  0.1707264777508854  0.9411529927250540   T   T   T
  0.4999999999999994  0.6708009007395719  0.9092000847796770   T   T   T
 -0.0000000000000000 -0.0711116884651544  0.8153444565804072   T   T   T
  0.4999999999999994  0.2592296630762269  0.7486356400243778   T   T   T
 -0.0000000000000000  0.5642000581360951  0.6842111694951041   T   T   T
  0.4999999999999994  0.2993414074811898  0.5733347469967598   T   T   T
  0.4999999999999994  0.7874845093475142  0.5939009636969202   T   T   T
 -0.0000000000000000 -0.0100314213426060  0.4670304746722839   T   T   T
 -0.0000000000000000  0.5014615177535501  0.3715630879836142   T   T   T
  0.4999999999999994  0.2797754684547241  0.2521472750638562   T   T   T
  0.4999999999999994  0.7921626087815418  0.2567896416864060   T   T   T
 -0.0000000000000000  0.0787412935172263  0.1291748631548273   T   T   T
  0.4999999999999994  0.6328452718638526  0.0772389831569178   T   T   T
