Sr Co O 
 1.0000000000000000
     3.8194368517550665    0.0000000000000000    0.0000000000000000
     0.0000000000000000    3.8194368517550665    0.0000000000000000
     0.0000000000000000    0.0000000000000002   25.0169686218485765
 Sr  Co  O  
   6   6  12
Selective dynamics
Direct
  0.0000000000000000  0.0000000000000000 -0.0149648216868923   T   T   T
  0.0000000000000000 -0.0000000000000000  0.1816314883535591   T   T   T
  0.0000000000000000  0.0000000000000000  0.3246292698911170   T   T   T
  0.0000000000000000  0.0000000000000000  0.5126978443725252   T   T   T
 -0.0000000000000000  0.0000000000000000  0.6539688222941422   T   T   T
  0.0000000000000000  0.0000000000000000  0.8420373967755492   T   T   T
  0.5000000000000000  0.5000000000000000  0.0833333333333334   T   T   T
  0.5000000000000000  0.5000000000000000  0.2556205498675814   T   T   T
  0.5000000000000000  0.5000000000000000  0.4207733669749014   T   T   T
  0.5000000000000000  0.5000000000000000  0.5833333333333338   T   T   T
  0.5000000000000000  0.5000000000000000  0.7458932996917644   T   T   T
  0.5000000000000000  0.5000000000000000  0.9110461167990854   T   T   T
  0.5000000000000000  0.5000000000000000  0.0128903352936418   T   T   T
  0.5000000000000000  0.5000000000000000  0.1537763313730249   T   T   T
 -0.0000000000000000  0.5000000000000000  0.2527230487765506   T   T   T
  0.5000000000000000 -0.0000000000000000  0.2527599741761148   T   T   T
  0.5000000000000000  0.5000000000000000  0.3475433416301580   T   T   T
 -0.0000000000000000  0.5000000000000000  0.4487018975153216   T   T   T
 -0.0000000000000000  0.5000000000000000  0.5908503426005349   T   T   T
  0.5000000000000000  0.0000000000000000  0.5758163240661324   T   T   T
  0.5000000000000000  0.0000000000000000  0.7179647691513459   T   T   T
  0.5000000000000000  0.5000000000000000  0.8191233250365103   T   T   T
 -0.0000000000000000  0.5000000000000000  0.9139066924905521   T   T   T
  0.5000000000000000 -0.0000000000000000  0.9139436178901161   T   T   T
