Sr Co O 
 1.0000000000000000
    -3.5966790999884330    0.0000000000000000    0.0000000000000000
     0.0000000000000000    4.1198697284295669    4.1198697284295616
     0.0000000000000000   12.2936485121745829  -12.2936485121745864
 Sr  Co  O  
   6   6  15
Selective dynamics
Direct
 -0.0000000000000000 -0.1572667435851432  0.0000000000000001   T   T   T
  0.0000000000000000  0.5329101671705440  0.8179657598481693   T   T   T
  0.0000000000000000 -0.0086599560800073  0.6579735047014124   T   T   T
 -0.0000000000000000  0.5014605907782030  0.4999999999999990   T   T   T
 -0.0000000000000000 -0.0086599560800056  0.3420264952985866   T   T   T
 -0.0000000000000000  0.5329101671705482  0.1820342401518308   T   T   T
  0.5000000000000007  0.4009099986944614  0.0000000000000001   T   T   T
  0.5000000000000007  0.0521280058147056  0.8299535967465470   T   T   T
  0.5000000000000007  0.4878750969712475  0.6575527415453188   T   T   T
  0.5000000000000007 -0.0042089379993047  0.4999999999999996   T   T   T
  0.5000000000000007  0.4878750969712451  0.3424472584546803   T   T   T
  0.5000000000000007  0.0521280058147046  0.1700464032534540   T   T   T
  0.5000000000000007  0.6091259938567303  0.9215344520972396   T   T   T
  0.0000000000000000  0.0999100518731911  0.8847416007977331   T   T   T
  0.5000000000000007  0.8158323725234760  0.7644320866353970   T   T   T
  0.5000000000000007  0.2870120115477292  0.7555704187258350   T   T   T
  0.0000000000000000  0.5266771327551435  0.6701892767951455   T   T   T
  0.5000000000000007  0.2374118146047802  0.5840795448393656   T   T   T
  0.5000000000000007  0.7435345724950658  0.5834237645504913   T   T   T
 -0.0000000000000000 -0.0084093482458881  0.4999999999999994   T   T   T
  0.5000000000000007  0.7435345724950676  0.4165762354495076   T   T   T
  0.5000000000000007  0.2374118146047776  0.4159204551606333   T   T   T
 -0.0000000000000000  0.5266771327551446  0.3298107232048532   T   T   T
  0.5000000000000007  0.2870120115477310  0.2444295812741649   T   T   T
  0.5000000000000007  0.8158323725234748  0.2355679133646041   T   T   T
 -0.0000000000000000  0.0999100518731927  0.1152583992022670   T   T   T
  0.5000000000000007  0.6091259938567311  0.0784655479027610   T   T   T
