Sr Co O 
 1.0000000000000000
    -3.6870293256286928    0.0000000000000000    0.0000000000000000
     0.0000000000000000    4.1827916914410430    3.9367907962376161
     0.0000000000000000   12.5297248025448962  -11.7860265007575595
 Sr  Co  O  
   6   6  13
Selective dynamics
Direct
 -0.0000000000000000 -0.0502600445457388  0.0059423481063608   T   T   T
 -0.0000000000000000  0.4441038946295542  0.8394480906551490   T   T   T
 -0.0000000000000000  0.0335437940799816  0.6806743277080767   T   T   T
 -0.0000000000000000  0.4779065717117710  0.4829642161131021   T   T   T
 -0.0000000000000000  0.0279249441103623  0.3338245907963149   T   T   T
 -0.0000000000000000  0.5502211776160206  0.1763794181553849   T   T   T
  0.5000000000000002  0.4706700423804580 -0.0020726841226251   T   T   T
  0.5000000000000002  0.0044449282950350  0.8372905619830319   T   T   T
  0.5000000000000002  0.5124011353617681  0.6557701962656549   T   T   T
  0.5000000000000002 -0.0518591818759743  0.5078542283857526   T   T   T
  0.5000000000000002  0.5321620916816248  0.3294802584108841   T   T   T
  0.5000000000000002  0.0559626823806557  0.1731403352956120   T   T   T
 -0.0000000000000000  0.5119789015843624 -0.0217108763772729   T   T   T
  0.5000000000000002  0.1907925136231898  0.9305923986402421   T   T   T
 -0.0000000000000000 -0.1205843987480782  0.8219418733675485   T   T   T
  0.5000000000000002  0.2896432570174647  0.7552822063901070   T   T   T
 -0.0000000000000000  0.4316515187701629  0.6267197348890667   T   T   T
  0.5000000000000002  0.8476395787748767  0.6128316573074954   T   T   T
  0.5000000000000002  0.7436763927791260  0.4263042359666241   T   T   T
  0.5000000000000002  0.2166460778791904  0.4461893024572419   T   T   T
 -0.0000000000000000  0.4998310790649649  0.3368510102373581   T   T   T
  0.5000000000000002  0.2915154424339158  0.2502240159612864   T   T   T
  0.5000000000000002  0.8018361664288496  0.2503633311052529   T   T   T
 -0.0000000000000000  0.0966484985493002  0.1369168289089362   T   T   T
  0.5000000000000002  0.6915027190755239  0.0734650767925044   T   T   T
