Sr Co O 
 1.0000000000000000
    -3.5904307071594919    0.0000000000000000    0.0000000000000000
     0.0000000000000000    4.0872968837928649    4.0594073205588108
     0.0000000000000000   12.7601751214204935  -12.6423275779243642
 Sr  Co  O  
   6   6  12
Selective dynamics
Direct
 -0.0000000000000000 -0.1650217813603292  0.0016858417451141   T   T   T
 -0.0000000000000000  0.3261037764176942  0.8505328391512943   T   T   T
 -0.0000000000000000  0.1392244841755856  0.6682479410126643   T   T   T
 -0.0000000000000000  0.5341663008464884  0.4613485399989712   T   T   T
 -0.0000000000000000  0.0160580419768126  0.3234559619805331   T   T   T
 -0.0000000000000000  0.4990294508744957  0.1714582104503199   T   T   T
  0.4999999999999995  0.3553072639660593 -0.0028551313971089   T   T   T
  0.4999999999999995 -0.1528032027097731  0.8436884300189060   T   T   T
  0.4999999999999995  0.6602497408653371  0.7250373352514923   T   T   T
  0.4999999999999995  0.0728344718836249  0.4893671449460652   T   T   T
  0.4999999999999995  0.5093875094675325  0.3138022147061240   T   T   T
  0.4999999999999995  0.0118620477884970  0.1617359403512594   T   T   T
  0.4999999999999995  0.0961604072647292  0.9334346584418414   T   T   T
  0.4999999999999995  0.5822274190684218  0.9025199718045822   T   T   T
  0.4999999999999995  1.0246190897939174  0.7547334406613361   T   T   T
 -0.0000000000000000  0.5358762053956073  0.7217234482883750   T   T   T
 -0.0000000000000000  0.1511096045974349  0.5385653713364182   T   T   T
  0.4999999999999995  0.8052339812878694  0.4312949056273383   T   T   T
  0.4999999999999995  0.2834690561374663  0.3997838261138739   T   T   T
 -0.0000000000000000  0.5582281390106206  0.3239936705128542   T   T   T
  0.4999999999999995  0.2533498151484460  0.2386848647021437   T   T   T
  0.4999999999999995  0.7613948797605771  0.2354067781841065   T   T   T
 -0.0000000000000000  0.0587925009717521  0.1136749579598649   T   T   T
  0.4999999999999995  0.5831410662238347  0.0653454692141086   T   T   T
