Sr Co O 
 1.0000000000000000
    -3.6113231788103737    0.0000000000000000    0.0000000000000000
     0.0000000000000000    4.2637584523278829    4.0576820687597506
     0.0000000000000000   12.6214421895238669  -11.9872220742427622
 Sr  Co  O  
   6   6  12
Selective dynamics
Direct
 -0.0000000000000000 -0.0353933365538327  0.0158837721714641   T   T   T
 -0.0000000000000000  0.4309675904626087  0.8184138076250821   T   T   T
 -0.0000000000000000 -0.0606311171815507  0.6785330991606899   T   T   T
 -0.0000000000000000  0.4634277096424732  0.4894254583613701   T   T   T
 -0.0000000000000000  0.0195043518124011  0.3371709294074694   T   T   T
 -0.0000000000000000  0.5800508546540272  0.1881315648874550   T   T   T
  0.5000000000000004  0.4725488818428061 -0.0068005110147963   T   T   T
  0.5000000000000004 -0.0563061803887877  0.8258206765448753   T   T   T
  0.5000000000000004  0.4621305488830371  0.6714102637956900   T   T   T
  0.5000000000000004 -0.0135770080169138  0.5005421705519366   T   T   T
  0.5000000000000004  0.5211362376958899  0.3434486907108152   T   T   T
  0.5000000000000004  0.0999198686079835  0.1777675352423400   T   T   T
 -0.0000000000000000  0.3788471540843527 -0.0416185086970935   T   T   T
  0.5000000000000004  0.6852167078953201  0.7645233563281110   T   T   T
  0.5000000000000004  0.1963399266069717  0.7511699270265090   T   T   T
 -0.0000000000000000  0.5139217571559365  0.6389039701959115   T   T   T
 -0.0000000000000000  0.0332789105455917  0.5467000292927755   T   T   T
  0.5000000000000004  0.7224576385679126  0.4401288827639405   T   T   T
  0.5000000000000004  0.2352370684742922  0.4188839051888817   T   T   T
 -0.0000000000000000  0.5668131960771561  0.3377310729772685   T   T   T
  0.5000000000000004  0.3348027572574103  0.2510794530127471   T   T   T
  0.5000000000000004  0.8398361348847468  0.2449922255511055   T   T   T
 -0.0000000000000000  0.1464726516525946  0.1325159391174005   T   T   T
  0.5000000000000004  0.7129976749437190  0.0585756060776771   T   T   T
