Sr Co O 
 1.0000000000000000
    -3.6097555795757130    0.0000000000000000    0.0000000000000000
     0.0000000000000000    4.0481944546099413    4.0455046270826136
     0.0000000000000000   12.2752325458159657  -12.2673809128780391
 Sr  Co  O  
   6   6  13
Selective dynamics
Direct
 -0.0000000000000000 -0.0813514763533001  0.0125827988035466   T   T   T
 -0.0000000000000000  0.4886931058712867  0.8242850406664723   T   T   T
 -0.0000000000000000 -0.0222214496570277  0.6646610462904577   T   T   T
 -0.0000000000000000  0.5309626857893583  0.5007794106463662   T   T   T
 -0.0000000000000000  0.0495504362483190  0.3431445008706336   T   T   T
 -0.0000000000000000  0.5309185252273625  0.1746975134857186   T   T   T
  0.5000000000000003  0.4588137165866480 -0.0117445331787132   T   T   T
  0.5000000000000003 -0.0373480608840670  0.8319326623808045   T   T   T
  0.5000000000000003  0.5044094383657391  0.6652831983159059   T   T   T
  0.5000000000000003  0.0066128814428573  0.4993354659451602   T   T   T
  0.5000000000000003  0.5427652069719633  0.3371586534893135   T   T   T
  0.5000000000000003  0.0343957354575254  0.1845340408580835   T   T   T
 -0.0000000000000000  0.3323402861184959 -0.0380351606274403   T   T   T
  0.5000000000000003  0.7722487119214038  0.9164040143514226   T   T   T
  0.5000000000000003  0.7417674511554735  0.7493044780928720   T   T   T
  0.5000000000000003  0.2284369230764976  0.7767728650779503   T   T   T
 -0.0000000000000000  0.4120898464649089  0.6495900223623130   T   T   T
  0.5000000000000003  0.7607964962296840  0.5828134339785643   T   T   T
 -0.0000000000000000  0.0822451286273086  0.5151092595667212   T   T   T
  0.5000000000000003  0.7797376572479753  0.4112218435921037   T   T   T
  0.5000000000000003  0.3181512208161070  0.4143860339983960   T   T   T
  0.5000000000000003  0.3078429953883255  0.2619507349216310   T   T   T
  0.5000000000000003  0.7712541253917491  0.2594340584520518   T   T   T
 -0.0000000000000000  0.0810282271977660  0.1455191687991927   T   T   T
  0.5000000000000003  0.6558599849555226  0.0788794120778025   T   T   T
