Sr Co O 
 1.0000000000000000
    -3.7304967636505970    0.0000000000000000    0.0000000000000000
     0.0000000000000000    3.8912158694061065    8.2147693790595504
     0.0000000000000000    7.7702339033116337   -8.2057097117643423
 Sr  Co  O  
   6   6  14
Selective dynamics
Direct
 -0.0000000000000000 -0.0072979470403972  0.0111374194286654   T   T   T
 -0.0000000000000000  0.3138378849749074  0.8142322382747368   T   T   T
 -0.0000000000000000  0.6753740946278661  0.6561233447849331   T   T   T
 -0.0000000000000000 -0.0085429946647717  0.5095892359040592   T   T   T
 -0.0000000000000000  0.3519185224549750  0.3375436744832459   T   T   T
 -0.0000000000000000  0.6915453901675841  0.1886066581093274   T   T   T
  0.4999999999999998  0.3306978017084086  0.0956339244156355   T   T   T
  0.4999999999999998  0.6756178861966328  0.9108827716646708   T   T   T
  0.4999999999999998 -0.0112827844990900  0.7519929214934052   T   T   T
  0.4999999999999998  0.3209806865306096  0.5769465896945057   T   T   T
  0.4999999999999998  0.6761982551915903  0.4133318325297640   T   T   T
  0.4999999999999998  0.0038464401857724  0.2501570266439282   T   T   T
  0.4999999999999998  0.1594405406562640  0.1642723569721786   T   T   T
 -0.0000000000000000  0.3210165892006614  0.0372042669795230   T   T   T
 -0.0000000000000000  0.5998727880479978  0.8712723700963696   T   T   T
  0.4999999999999998  0.8393268691986355  0.8384678912179309   T   T   T
 -0.0000000000000000  0.0286281433658887  0.7838203729242982   T   T   T
  0.4999999999999998  0.8284021228347324  0.5835455173772183   T   T   T
  0.4999999999999998  0.1876239798312901  0.6735628006586123   T   T   T
 -0.0000000000000000  0.3021341315086907  0.5629976614318191   T   T   T
  0.4999999999999998  0.4755834923998059  0.5095941585993029   T   T   T
 -0.0000000000000000  0.6644218540637608  0.4179148621465624   T   T   T
  0.4999999999999998  0.5230799727857424  0.2413073062615821   T   T   T
  0.4999999999999998  0.8724391444320037  0.3485837103356253   T   T   T
 -0.0000000000000000  0.0415798415472483  0.2808886130592710   T   T   T
  0.4999999999999998  0.8102239396129459  0.0870570700578487   T   T   T
