Sr Co O 
 1.0000000000000000
    -3.7399809954215804    0.0000000000000000    0.0000000000000000
     0.0000000000000000    3.9707758896986625    8.0137315109983192
     0.0000000000000000    7.9974151304983243   -8.0420517855418243
 Sr  Co  O  
   6   6  14
Selective dynamics
Direct
 -0.0000000000000000 -0.0272609714974329  0.0146410738021218   T   T   T
 -0.0000000000000000  0.3278402693215717  0.8062863863829005   T   T   T
 -0.0000000000000000  0.6394725602409311  0.6651443358452275   T   T   T
 -0.0000000000000000  0.0201214301013602  0.4823262049690528   T   T   T
 -0.0000000000000000  0.3528978119333010  0.3474478047340424   T   T   T
 -0.0000000000000000  0.6831149013133118  0.1885225380531945   T   T   T
  0.4999999999999994  0.3370576131884896  0.0939375356749866   T   T   T
  0.4999999999999994  0.6529862774840806  0.9174405138558493   T   T   T
  0.4999999999999994 -0.0074206318947718  0.7491355184995236   T   T   T
  0.4999999999999994  0.3335105396970428  0.5767975532026732   T   T   T
  0.4999999999999994  0.6811978473477138  0.4240775224076865   T   T   T
  0.4999999999999994  0.0086318959076061  0.2475924974950118   T   T   T
  0.4999999999999994  0.1430558030878998  0.1214552974215187   T   T   T
 -0.0000000000000000  0.3553581603847836  0.0346528268120495   T   T   T
 -0.0000000000000000  0.6630356915213429  0.9080083412854493   T   T   T
  0.4999999999999994  0.4955954988670618  0.7614389647818381   T   T   T
 -0.0000000000000000 -0.0517103804151008  0.7814135647128889   T   T   T
  0.4999999999999994  0.1421125186501334  0.6685925960358586   T   T   T
 -0.0000000000000000  0.3340952077255799  0.5814991666833631   T   T   T
  0.4999999999999994  0.1896713013508297  0.4055578601383712   T   T   T
  0.4999999999999994  0.5323212300909884  0.5100147613914627   T   T   T
 -0.0000000000000000  0.7201332351623565  0.4629057204285935   T   T   T
  0.4999999999999994  0.5063968036959693  0.2474833929028262   T   T   T
  0.4999999999999994  0.8417926638021364  0.3506452840789946   T   T   T
 -0.0000000000000000 -0.0030964459189201  0.2443658862553201   T   T   T
  0.4999999999999994  0.7957557960771373  0.0752836494134530   T   T   T
