Sr Co O 
 1.0000000000000000
    -3.7245016758208336    0.0000000000000000    0.0000000000000000
     0.0000000000000000    4.0357328758148734    3.9213456939932918
     0.0000000000000000   12.0837345176480699  -11.7399350924486168
 Sr  Co  O  
   6   6  12
Selective dynamics
Direct
 -0.0000000000000000 -0.0073338496370473 -0.0008095785206168   T   T   T
 -0.0000000000000000  0.4307645748932807  0.8390617934298501   T   T   T
 -0.0000000000000000 -0.1086464250752387  0.6801989250705835   T   T   T
 -0.0000000000000000  0.4845782196929266  0.5128728297779442   T   T   T
 -0.0000000000000000  0.0880266739172682  0.3177926060096916   T   T   T
 -0.0000000000000000  0.5727533169780609  0.1668836636731895   T   T   T
  0.4999999999999998  0.5087007926756625 -0.0039462546372734   T   T   T
  0.4999999999999998 -0.0495061845999646  0.8376994494789685   T   T   T
  0.4999999999999998  0.4417747689801743  0.6732870445619845   T   T   T
  0.4999999999999998 -0.0287988471070635  0.5035303938867647   T   T   T
  0.4999999999999998  0.5679704233970120  0.3308352645025469   T   T   T
  0.4999999999999998  0.0628889295428981  0.1645566850514761   T   T   T
 -0.0000000000000000  0.5364236126297884 -0.0215078492747973   T   T   T
  0.4999999999999998  0.2059903388839527  0.9173429163227966   T   T   T
 -0.0000000000000000 -0.0305984352074039  0.8268808336482277   T   T   T
  0.4999999999999998  0.6716638357851324  0.7610771641419780   T   T   T
 -0.0000000000000000  0.3302105427718962  0.6654643473811012   T   T   T
  0.4999999999999998  0.6994641767189642  0.5805756392160384   T   T   T
 -0.0000000000000000  0.0368163573832751  0.4859093429597959   T   T   T
 -0.0000000000000000  0.5306665561216132  0.3733233320674093   T   T   T
  0.4999999999999998  0.3325341965622430  0.2479109400264234   T   T   T
  0.4999999999999998  0.8456117973555467  0.2617033382187780   T   T   T
 -0.0000000000000000  0.1303926631175404  0.1361010324610976   T   T   T
  0.4999999999999998  0.7476518554517294  0.0765895743247255   T   T   T
