Sr Co O 
 1.0000000000000000
    -3.5234796415908072    0.0000000000000000    0.0000000000000000
     0.0000000000000000    4.1578463990043382    3.8750103021785924
     0.0000000000000000   12.6897610239635412  -11.8597039984080332
 Sr  Co  O  
   6   6  12
Selective dynamics
Direct
 -0.0000000000000000 -0.0544896576192724 -0.0021675630558254   T   T   T
 -0.0000000000000000  0.5567176663586825  0.8216692442542767   T   T   T
 -0.0000000000000000 -0.0368512471322863  0.6495775531022978   T   T   T
 -0.0000000000000000  0.4829344377484737  0.4906695958953328   T   T   T
 -0.0000000000000000  0.0155017056667789  0.3288693873561720   T   T   T
 -0.0000000000000000  0.5357805208366698  0.1697963885607099   T   T   T
  0.4999999999999995  0.4749886585039327 -0.0154637273092920   T   T   T
  0.4999999999999995  0.0278071560760524  0.8344024870112439   T   T   T
  0.4999999999999995  0.4522822412467339  0.6478381583416738   T   T   T
  0.4999999999999995 -0.0171864867958862  0.4888010401439836   T   T   T
  0.4999999999999995  0.5156195131642120  0.3307362525288282   T   T   T
  0.4999999999999995  0.0463955431878231  0.1718105588882767   T   T   T
  0.4999999999999995  0.7525613074778754  0.9098731030274532   T   T   T
  0.4999999999999995  0.8487652942298851  0.7523142626464017   T   T   T
  0.4999999999999995  0.2527766854206426  0.9090457651095774   T   T   T
 -0.0000000000000000  0.3950822677160719  0.6967033883541011   T   T   T
  0.4999999999999995  0.2053917311178416  0.5672450962526029   T   T   T
  0.4999999999999995  0.7306069103856265  0.5696980967293995   T   T   T
  0.4999999999999995  0.7491662530156362  0.4097772661975534   T   T   T
  0.4999999999999995  0.2491567240664287  0.4097761965103897   T   T   T
  0.4999999999999995  0.2933000214784167  0.2523127271632269   T   T   T
  0.4999999999999995  0.7678651640281889  0.2498454005182068   T   T   T
 -0.0000000000000000  0.1041368653396962  0.1231092693886073   T   T   T
  0.4999999999999995  0.6516903003092129  0.0670932541537730   T   T   T
