Sr Co O 
 1.0000000000000000
    -3.7285944817044960    0.0000000000000000    0.0000000000000000
     0.0000000000000000    3.9852608182766844    7.9790014951129882
     0.0000000000000000    8.1652715290100755   -8.0786807713583215
 Sr  Co  O  
   6   6  14
Selective dynamics
Direct
 -0.0000000000000000  0.0115529921207093 -0.0090759882330991   T   T   T
 -0.0000000000000000  0.3188074353190273  0.8601626994690552   T   T   T
 -0.0000000000000000  0.6810373998119545  0.6423243569258218   T   T   T
 -0.0000000000000000 -0.0192499984847148  0.4625327848768156   T   T   T
 -0.0000000000000000  0.3330921262434954  0.3506494828602842   T   T   T
 -0.0000000000000000  0.6261674052596065  0.1795568631449597   T   T   T
  0.5000000000000001  0.3281946166119919  0.0906367069044816   T   T   T
  0.5000000000000001  0.6489662520351406  0.9169459644536319   T   T   T
  0.5000000000000001  0.0163950529149954  0.7281099460162319   T   T   T
  0.5000000000000001  0.3525796246537202  0.6049292247028364   T   T   T
  0.5000000000000001  0.6620535549482082  0.4115078703590401   T   T   T
  0.5000000000000001 -0.0436980634460160  0.2103931586183769   T   T   T
 -0.0000000000000000  0.3076286941292306  0.1019275613538533   T   T   T
  0.5000000000000001  0.1690220101896986  0.9361611704412760   T   T   T
  0.5000000000000001  0.5090709262855251  0.0091095952607262   T   T   T
  0.5000000000000001  0.5496498784576231  0.7514354027807618   T   T   T
 -0.0000000000000000 -0.0232310630231003  0.7633775402999869   T   T   T
  0.5000000000000001  0.8512250400060406  0.5714870241184288   T   T   T
  0.5000000000000001  0.2286273824569535  0.7037746072195193   T   T   T
  0.5000000000000001  0.1889445388783839  0.4640668980444868   T   T   T
  0.5000000000000001  0.4909044328339661  0.5167685822464833   T   T   T
 -0.0000000000000000  0.6562443783556596  0.4131744522504880   T   T   T
  0.5000000000000001  0.4620791459333391  0.2555228697718862   T   T   T
  0.5000000000000001  0.8147122197971531  0.3052698340490280   T   T   T
 -0.0000000000000000  0.0319521837496881  0.2301631946287794   T   T   T
  0.5000000000000001  0.8472718996740967  0.0290882112791094   T   T   T
