Sr Co O 
 1.0000000000000000
    -3.6776101504399725    0.0000000000000000    0.0000000000000000
     0.0000000000000000    4.0642932360584245    3.9597210800371898
     0.0000000000000000   12.1394209650516363  -11.8256506058252473
 Sr  Co  O  
   6   6  12
Selective dynamics
Direct
 -0.0000000000000000 -0.0361040048007008  0.0079077046449683   T   T   T
 -0.0000000000000000  0.4297661193412680  0.8442163597551693   T   T   T
 -0.0000000000000000  0.0136883114173823  0.6759170117393269   T   T   T
 -0.0000000000000000  0.4766702185313937  0.4965259739922917   T   T   T
 -0.0000000000000000  0.0568660626075532  0.3200033348457756   T   T   T
 -0.0000000000000000  0.5324247533043824  0.1712705116902073   T   T   T
  0.5000000000000004  0.4806826280471944  0.0027429962575049   T   T   T
  0.5000000000000004 -0.0167164039974109  0.8380212053052262   T   T   T
  0.5000000000000004  0.4710955846208723  0.6590456973694546   T   T   T
  0.5000000000000004  0.0084422311501261  0.4893184757791896   T   T   T
  0.5000000000000004  0.5364557798894238  0.3391166330939041   T   T   T
  0.5000000000000004  0.0084684410222371  0.1694142117353267   T   T   T
 -0.0000000000000000  0.5148686760776071 -0.0132166379856416   T   T   T
  0.5000000000000004  0.1933802212273898  0.9303224648912317   T   T   T
 -0.0000000000000000 -0.1353395637691160  0.8226423721192293   T   T   T
  0.5000000000000004  0.2607744678996877  0.7541914681254360   T   T   T
 -0.0000000000000000  0.5944424127097567  0.6389760125057750   T   T   T
  0.5000000000000004  0.1714217123284333  0.5837351906258317   T   T   T
  0.5000000000000004  0.7304770959539283  0.4379357446038067   T   T   T
  0.5000000000000004  0.2669539582239133  0.4134234128946482   T   T   T
  0.5000000000000004  0.3258123595752020  0.2558266904848643   T   T   T
  0.5000000000000004  0.7954232673264626  0.2683328474137653   T   T   T
 -0.0000000000000000  0.0970063862013462  0.1450839133737110   T   T   T
  0.5000000000000004  0.7230392118490239  0.0825797555646210   T   T   T
