Sr Co O 
 1.0000000000000000
    -3.6374036790896316    0.0000000000000000    0.0000000000000000
     0.0000000000000000    4.6640277366435585    4.0472581366199787
     0.0000000000000000   12.9787275745931154  -11.1208838400642822
 Sr  Co  O  
   6   6  12
Selective dynamics
Direct
 -0.0000000000000000  0.0392412932683120  0.0130988069369025   T   T   T
 -0.0000000000000000  0.4404358134054382  0.8476838517480357   T   T   T
 -0.0000000000000000 -0.0519463143417986  0.6606343198137405   T   T   T
 -0.0000000000000000  0.5382575766938601  0.5068789972500384   T   T   T
 -0.0000000000000000  0.0990323940444970  0.3116821104208700   T   T   T
 -0.0000000000000000  0.4923088576881812  0.1513570183992738   T   T   T
  0.4999999999999997  0.5812721311322231 -0.0093015987865801   T   T   T
  0.4999999999999997 -0.0258220474788945  0.8378978719754783   T   T   T
  0.4999999999999997  0.4012881607716714  0.6743479212218201   T   T   T
  0.4999999999999997  0.0638031867483690  0.5026900236293333   T   T   T
  0.4999999999999997  0.5402937648859369  0.3283919893366029   T   T   T
  0.4999999999999997 -0.0510891851069271  0.1749377381667503   T   T   T
 -0.0000000000000000  0.4542138708524213  0.0047159172546079   T   T   T
  0.4999999999999997  0.1722968122322255  0.9085738587004158   T   T   T
  0.4999999999999997  0.6789999348428132  0.8731483375619470   T   T   T
  0.4999999999999997  0.0908948461715152  0.7285175291054169   T   T   T
 -0.0000000000000000  0.5408247076204178  0.6856405199355348   T   T   T
  0.4999999999999997  0.3051131372047678  0.5638811395194104   T   T   T
 -0.0000000000000000 -0.0539017277947262  0.5043643224646440   T   T   T
 -0.0000000000000000  0.4468229246023860  0.3799462306119318   T   T   T
  0.4999999999999997  0.3573655841809620  0.2449039210532829   T   T   T
  0.4999999999999997  0.8478157579841538  0.2890269434802871   T   T   T
 -0.0000000000000000  0.0708862607332170  0.1556850950162895   T   T   T
  0.4999999999999997  0.7715924511959676  0.0779638429347202   T   T   T
