Sr Co O 
 1.0000000000000000
    -3.7040209458528457    0.0000000000000000    0.0000000000000000
     0.0000000000000000    3.9152048741007324    8.1212703773745876
     0.0000000000000000    8.0145235976955753   -8.2138870279875835
 Sr  Co  O  
   6   6  14
Selective dynamics
Direct
 -0.0000000000000000 -0.0316975390332494  0.0098750857735843   T   T   T
 -0.0000000000000000  0.3420520751612440  0.8086843182177729   T   T   T
 -0.0000000000000000  0.6453461529165307  0.6623753112451733   T   T   T
 -0.0000000000000000  0.0258344785228539  0.4847798728590754   T   T   T
 -0.0000000000000000  0.3555460938917784  0.3423715541239130   T   T   T
 -0.0000000000000000  0.6817284702608953  0.1805060785296118   T   T   T
  0.5000000000000000  0.3451139585117690  0.0881087258036209   T   T   T
  0.5000000000000000  0.6410226299164660  0.9221110608451722   T   T   T
  0.5000000000000000 -0.0005367925967020  0.7481527139593033   T   T   T
  0.5000000000000000  0.3398759677089600  0.5737097319042604   T   T   T
  0.5000000000000000  0.6819995410885581  0.4200279659210579   T   T   T
  0.5000000000000000 -0.0001793245664132  0.2545890585832679   T   T   T
 -0.0000000000000000  0.2632244401451575  0.0846613856445818   T   T   T
  0.5000000000000000  0.4517656075815582 -0.0277963629952643   T   T   T
 -0.0000000000000000  0.6726037181721972  0.9060050940647376   T   T   T
  0.5000000000000000  0.5071186946270461  0.7426436938135161   T   T   T
 -0.0000000000000000 -0.0481676846957542  0.7827432392064154   T   T   T
  0.5000000000000000  0.1382807551717193  0.6617286104500967   T   T   T
 -0.0000000000000000  0.3336573980150493  0.5779354719224788   T   T   T
  0.5000000000000000  0.1877644850895774  0.4001044979691621   T   T   T
  0.5000000000000000  0.5330086075665319  0.5023738720266037   T   T   T
 -0.0000000000000000  0.7311460040964143  0.4644754220742978   T   T   T
  0.5000000000000000  0.5064091707636942  0.2500898952164102   T   T   T
  0.5000000000000000  0.8395780353288075  0.3397422428624072   T   T   T
 -0.0000000000000000  0.0244205185260838  0.2394206997020018   T   T   T
  0.5000000000000000  0.8330844314029416  0.0805806851418511   T   T   T
