Sr Co O 
 1.0000000000000000
    -3.6936802147531198    0.0000000000000000    0.0000000000000000
     0.0000000000000000    4.2131606850060139    7.6942882440542739
     0.0000000000000000    8.5309221742710744   -7.7491970905701288
 Sr  Co  O  
   6   6  14
Selective dynamics
Direct
 -0.0000000000000000 -0.0268822844228423  0.0052437373440984   T   T   T
 -0.0000000000000000  0.3592041531674519  0.8194511017434010   T   T   T
 -0.0000000000000000  0.6419239189430813  0.6482913924024425   T   T   T
 -0.0000000000000000 -0.0134060886938721  0.4792740189732499   T   T   T
 -0.0000000000000000  0.3503178329987323  0.3523344937550067   T   T   T
 -0.0000000000000000  0.6759590617394295  0.1847779681758175   T   T   T
  0.4999999999999997  0.3220309926121072  0.0731040425657018   T   T   T
  0.4999999999999997  0.6822949444462731  0.9256266864777106   T   T   T
  0.4999999999999997 -0.0127711248226659  0.7360679865277170   T   T   T
  0.4999999999999997  0.3111403400547725  0.5763119761652252   T   T   T
  0.4999999999999997  0.6727661013880663  0.4241392278873343   T   T   T
  0.4999999999999997  0.0058141605411306  0.2526826593607208   T   T   T
 -0.0000000000000000  0.2672453230876327  0.0134327025736505   T   T   T
 -0.0000000000000000  0.6424209144306241  0.9520597778070792   T   T   T
  0.4999999999999997  0.5403691618941245  0.7762001790479117   T   T   T
  0.4999999999999997  0.8896484340993323  0.8559048699743781   T   T   T
  0.4999999999999997  0.8440540706238093  0.5911754458209674   T   T   T
  0.4999999999999997  0.1801848107937908  0.7101235282291508   T   T   T
 -0.0000000000000000  0.3273721772188531  0.5918456057491510   T   T   T
  0.4999999999999997  0.1604200689975846  0.4148931609730700   T   T   T
  0.4999999999999997  0.5008332358503893  0.5016389008959196   T   T   T
 -0.0000000000000000  0.6643142641485632  0.4141263451920121   T   T   T
  0.4999999999999997  0.4635105247772672  0.2180240719982597   T   T   T
  0.4999999999999997  0.8311734411630513  0.3327154791404600   T   T   T
 -0.0000000000000000  0.0572491495938356  0.2285510016936687   T   T   T
  0.4999999999999997  0.8294792421696161  0.0886704786887207   T   T   T
