Sr Co O 
 1.0000000000000000
    -3.6714973394485093    0.0000000000000000    0.0000000000000000
     0.0000000000000000    3.9561711165240450    8.0647442725353695
     0.0000000000000000    7.8969248362668703   -8.0571705484179805
 Sr  Co  O  
   6   6  15
Selective dynamics
Direct
  0.0000000000000000 -0.0124147645880932  0.0066656325972349   T   T   T
 -0.0000000000000000  0.3457480979214264  0.8266677007360979   T   T   T
  0.0000000000000000  0.6619334989350518  0.6648280098467403   T   T   T
  0.0000000000000000 -0.0147254683764896  0.5023075810192387   T   T   T
 -0.0000000000000000  0.3480588017098225  0.3310257523140944   T   T   T
 -0.0000000000000000  0.6713998343982798  0.1685053234865914   T   T   T
  0.5000000000000004  0.3269931845717639  0.0767496939352930   T   T   T
  0.5000000000000004  0.6666666666666662  0.9166666666666659   T   T   T
  0.5000000000000004  0.0063401487615685  0.7565836393980399   T   T   T
  0.5000000000000004  0.3369337102217477  0.5851373846382710   T   T   T
  0.5000000000000004  0.6666666666666653  0.4166666666666655   T   T   T
  0.5000000000000004 -0.0036003768884146  0.2481959486950620   T   T   T
  0.5000000000000004  0.1784043256192984  0.1573284872254572   T   T   T
  0.5000000000000004  0.1666666666666662  0.9166666666666660   T   T   T
  0.5000000000000004  0.4749185267392526 -0.0002443175270625   T   T   T
 -0.0000000000000000  0.6666666666666662  0.9166666666666659   T   T   T
  0.5000000000000004  0.5028051519263739  0.7469753668449927   T   T   T
  0.5000000000000004  0.8584148065940801  0.8335776508603955   T   T   T
  0.5000000000000004  0.8470587276791298  0.6035759707907450   T   T   T
  0.5000000000000004  0.1549290077140344  0.6760048461078758   T   T   T
  0.0000000000000000  0.2884917796657933  0.5515749238853133   T   T   T
  0.5000000000000004  0.4830949927969400  0.4913908812497166   T   T   T
 -0.0000000000000000  0.6666666666666653  0.4166666666666655   T   T   T
  0.5000000000000004  0.4862746056542027  0.2297573625425876   T   T   T
  0.5000000000000004  0.8502383405363921  0.3419424520836156   T   T   T
 -0.0000000000000000  0.0448415536675390  0.2817584094480189   T   T   T
  0.5000000000000004  0.8305281814069584  0.0863579664883392   T   T   T
