Sr Co O 
 1.0000000000000000
    -3.6851218549909581    0.0000000000000000    0.0000000000000000
     0.0000000000000000    3.9365089462759544    7.9056034794221324
     0.0000000000000000    7.9440446275808974   -7.9408974111036459
 Sr  Co  O  
   6   6  14
Selective dynamics
Direct
  0.0000000000000000  0.0031056298808994  0.0132786644267663   T   T   T
  0.0000000000000000  0.3302277034524360  0.8200546689065675   T   T   T
  0.0000000000000000  0.6506774671211811  0.6511800280411872   T   T   T
  0.0000000000000000 -0.0142516435462072  0.5048012893226946   T   T   T
  0.0000000000000000  0.3475849768795422  0.3285320440106393   T   T   T
 -0.0000000000000000  0.6826558662121568  0.1821533052921456   T   T   T
  0.5000000000000004  0.3366824151997503  0.0727408991345925   T   T   T
  0.5000000000000004  0.6666666666666695  0.9166666666666670   T   T   T
  0.5000000000000004 -0.0033490818664152  0.7605924341987421   T   T   T
  0.5000000000000004  0.3343737145981845  0.5875519288910193   T   T   T
  0.5000000000000004  0.6666666666666692  0.4166666666666669   T   T   T
  0.5000000000000004 -0.0010403812648496  0.2457814044423146   T   T   T
  0.5000000000000004  0.1845699511926726  0.1580328552175187   T   T   T
  0.5000000000000004  0.1666666666666678  0.9166666666666670   T   T   T
  0.5000000000000004  0.4884516934211899 -0.0140671067861100   T   T   T
  0.5000000000000004  0.5150921178969260  0.7558975601622088   T   T   T
  0.5000000000000004  0.8448816399121470  0.8474004401194417   T   T   T
  0.5000000000000004  0.8378647143600096  0.6097923337183185   T   T   T
  0.5000000000000004  0.1487633821406628  0.6753004781158153   T   T   T
  0.0000000000000000  0.2938108837706245  0.5588261277168766   T   T   T
  0.5000000000000004  0.4799076498218466  0.4866824927275735   T   T   T
 -0.0000000000000000  0.6666666666666692  0.4166666666666669   T   T   T
  0.5000000000000004  0.4954686189733298  0.2235409996150159   T   T   T
  0.5000000000000004  0.8534256835114916  0.3466508406057596   T   T   T
 -0.0000000000000000  0.0395224495627110  0.2745072056164579   T   T   T
  0.5000000000000004  0.8182412154364127  0.0774357731711241   T   T   T
