Sr Co O 
 1.0000000000000000
    -3.5675178348473451    0.0000000000000000    0.0000000000000000
     0.0000000000000000    4.2110512266295750    3.9217538951771811
     0.0000000000000000   12.7314477931601928  -11.8378810116041375
 Sr  Co  O  
   6   6  12
Selective dynamics
Direct
 -0.0000000000000000 -0.0006583502422103 -0.0045462769755314   T   T   T
 -0.0000000000000000  0.3485160708272179  0.8240324178855515   T   T   T
 -0.0000000000000000 -0.1323945589536154  0.6546596648021262   T   T   T
 -0.0000000000000000  0.5371537831741152  0.4833193219705876   T   T   T
 -0.0000000000000000  0.0848553637311691  0.3252887073688953   T   T   T
 -0.0000000000000000  0.6053031690342808  0.1669144561970955   T   T   T
  0.4999999999999999  0.5005984060419448 -0.0050978628103352   T   T   T
  0.4999999999999999 -0.1361977822843799  0.8154655618916554   T   T   T
  0.4999999999999999  0.3930487232154001  0.6646751589640901   T   T   T
  0.4999999999999999  0.0489167915919941  0.4815247043678026   T   T   T
  0.4999999999999999  0.5865303207887049  0.3246022693909243   T   T   T
  0.4999999999999999  0.1174002885538652  0.1689588838904274   T   T   T
  0.4999999999999999  0.2743830677455715  0.9307045635946692   T   T   T
 -0.0000000000000000 -0.1093261561340908  0.8582548614419674   T   T   T
  0.4999999999999999  0.5894572537119661  0.7525603936198881   T   T   T
  0.4999999999999999  0.1072108073811801  0.7192374468715718   T   T   T
  0.4999999999999999  0.6137316619056943  0.5848688076434425   T   T   T
 -0.0000000000000000  0.0836209470577990  0.5277868568498570   T   T   T
  0.4999999999999999  0.8057569157905128  0.4031809369704764   T   T   T
  0.4999999999999999  0.3319035580360787  0.4020576107825628   T   T   T
  0.4999999999999999  0.3667077777798644  0.2463502668124249   T   T   T
  0.4999999999999999  0.8363809272668703  0.2441397938186446   T   T   T
 -0.0000000000000000  0.1675301678941711  0.1230041401937968   T   T   T
  0.4999999999999999  0.7295708158581068  0.0580573037395014   T   T   T
