Sr Co O 
 1.0000000000000000
    -3.6838060071975343    0.0000000000000000    0.0000000000000000
     0.0000000000000000    4.0287101977685857    7.8799789093816415
     0.0000000000000000    8.0660091535215859   -7.8846372305095942
 Sr  Co  O  
   6   6  15
Selective dynamics
Direct
  0.0000000000000000 -0.0014714952725657  0.0108704367351515   T   T   T
 -0.0000000000000000  0.3333333333333345  0.8333333333333345   T   T   T
 -0.0000000000000000  0.6681381619392331  0.6557962299315165   T   T   T
 -0.0000000000000000 -0.0140870835979004  0.4939834470197668   T   T   T
 -0.0000000000000000  0.3333333333333336  0.3333333333333340   T   T   T
  0.0000000000000000  0.6807537502645672  0.1726832196469010   T   T   T
  0.4999999999999999  0.3307795940909288  0.0803463761829076   T   T   T
  0.4999999999999999  0.6560246505046093  0.9171045091790141   T   T   T
  0.4999999999999999  0.0106420161620583  0.7495621574876546   T   T   T
  0.4999999999999999  0.3358870725757382  0.5863202904837600   T   T   T
  0.4999999999999999  0.6631853391398141  0.4135931002203034   T   T   T
  0.4999999999999999  0.0034813275268532  0.2530735664463645   T   T   T
  0.4999999999999999  0.1822421992706706  0.1643799507034559   T   T   T
  0.4999999999999999  0.1683773232886379  0.9304619961993245   T   T   T
  0.4999999999999999  0.4780395783741833 -0.0063243065184117   T   T   T
  0.0000000000000000  0.6865339296789015  0.8916604146195509   T   T   T
  0.4999999999999999  0.4982893433780315  0.7362046704673447   T   T   T
  0.0000000000000000 -0.0198672630122308  0.7750062520471196   T   T   T
  0.4999999999999999  0.8407581300268563  0.5986902722334582   T   T   T
  0.4999999999999999  0.1886270882924832  0.6729909731850789   T   T   T
  0.4999999999999999  0.1793605554261130  0.4394189942569563   T   T   T
  0.4999999999999999  0.4844244673959965  0.5022867159632118   T   T   T
 -0.0000000000000000  0.6555224721954498  0.4138631299377204   T   T   T
  0.4999999999999999  0.4873061112405537  0.2272476724097111   T   T   T
  0.4999999999999999  0.8333333333333330  0.3333333333333341   T   T   T
  0.0000000000000000  0.0111441944712174  0.2528035367289475   T   T   T
  0.4999999999999999  0.8259085366398111  0.0679763944332115   T   T   T
