Sr Co O 
 1.0000000000000000
    -3.5724094511445479    0.0000000000000000    0.0000000000000000
     0.0000000000000000    4.1519734953305436    4.0111372190596670
     0.0000000000000000   12.5966736615654540  -12.1893191713173046
 Sr  Co  O  
   6   6  12
Selective dynamics
Direct
 -0.0000000000000000  0.0042403141628857  0.0065671853885319   T   T   T
 -0.0000000000000000  0.4180458291327652  0.8284155432431678   T   T   T
 -0.0000000000000000 -0.1830110534414804  0.6693752922342151   T   T   T
 -0.0000000000000000  0.4362475079988848  0.4950507022970374   T   T   T
 -0.0000000000000000  0.1039465652496194  0.3236543084653806   T   T   T
 -0.0000000000000000  0.6217856999461675  0.1695871749008935   T   T   T
  0.4999999999999996  0.5374768716781848 -0.0155571438713255   T   T   T
  0.4999999999999996 -0.0332033093605996  0.8406084504688466   T   T   T
  0.4999999999999996  0.3445163575658510  0.6559199894385804   T   T   T
  0.4999999999999996 -0.0714269128026251  0.4964917979897083   T   T   T
  0.4999999999999996  0.6234898473268701  0.3283645811171031   T   T   T
  0.4999999999999996  0.1374962361253727  0.1714448434887904   T   T   T
 -0.0000000000000000  0.6160207285454431 -0.0546482477120747   T   T   T
  0.4999999999999996  0.2020665157886809  0.9199260810109500   T   T   T
 -0.0000000000000000 -0.0269287774310939  0.8008016004960402   T   T   T
  0.4999999999999996  0.5624421859995198  0.7363654069098510   T   T   T
 -0.0000000000000000  0.2404856055034604  0.6285367487695024   T   T   T
  0.4999999999999996  0.6881915323936553  0.5649607508963344   T   T   T
  0.4999999999999996  0.1844075106984198  0.4370540415752934   T   T   T
 -0.0000000000000000  0.6659606069436934  0.3764323003732351   T   T   T
  0.4999999999999996  0.3706512724212635  0.2566402796881611   T   T   T
  0.4999999999999996  0.8759416398087870  0.2478342405029004   T   T   T
 -0.0000000000000000  0.1943186140033348  0.1286828368231037   T   T   T
  0.4999999999999996  0.7368387689837204  0.0708245993981649   T   T   T
