Sr Co O 
 1.0000000000000000
    -3.6785536007751563    0.0000000000000000    0.0000000000000000
     0.0000000000000000    3.9295438581571758    8.2854319022279128
     0.0000000000000000    7.9268501148930017   -8.3183570372194406
 Sr  Co  O  
   6   6  14
Selective dynamics
Direct
 -0.0000000000000000  0.0068287203128687  0.0276630815252855   T   T   T
 -0.0000000000000000  0.3170413881678873  0.8172893905182945   T   T   T
 -0.0000000000000000  0.6454651424824739  0.6470655124834012   T   T   T
 -0.0000000000000000  0.0263537179818317  0.4916707517800708   T   T   T
 -0.0000000000000000  0.3366367296700505  0.3288759944998202   T   T   T
 -0.0000000000000000  0.6837118722640005  0.1843923805923554   T   T   T
  0.4999999999999995  0.3372580693378892  0.0822388092614474   T   T   T
  0.4999999999999995  0.6392521496287112  0.9201378200146676   T   T   T
  0.4999999999999995 -0.0173245501338255  0.7589683719374231   T   T   T
  0.4999999999999995  0.3547926354909819  0.5775970865767499   T   T   T
  0.4999999999999995  0.6774377093145002  0.4120602030793427   T   T   T
  0.4999999999999995  0.0109521995960644  0.2559468926367663   T   T   T
  0.4999999999999995  0.1758370410965572  0.1640723550495904   T   T   T
 -0.0000000000000000  0.2813470594810231  0.0285011797304201   T   T   T
  0.4999999999999995  0.4719936566773413 -0.0263040427202461   T   T   T
  0.4999999999999995  0.5476937079930728  0.7529533363337813   T   T   T
 -0.0000000000000000 -0.0710639161216976  0.7903753353314976   T   T   T
  0.4999999999999995  0.1301215228696961  0.6853361220824568   T   T   T
 -0.0000000000000000  0.3421587055749135  0.6000694732581228   T   T   T
  0.4999999999999995  0.1852440868523927  0.4228422094407948   T   T   T
  0.4999999999999995  0.5193753239751859  0.4906248092385087   T   T   T
 -0.0000000000000000  0.7292428303277245  0.4610906995090623   T   T   T
  0.4999999999999995  0.5143555931988830  0.2398881740036221   T   T   T
  0.4999999999999995  0.8422272466273026  0.3412700098502507   T   T   T
 -0.0000000000000000 -0.0058663267545416  0.2453151768550138   T   T   T
  0.4999999999999995  0.8189276301456587  0.0500587948620735   T   T   T
