Sr Co O 
 1.0000000000000000
    -3.5332077377934414    0.0000000000000000    0.0000000000000000
     0.0000000000000000    3.8866497807959552    4.3775169189584755
     0.0000000000000000   11.8725494984926900  -13.3572804215422369
 Sr  Co  O  
   6   6  12
Selective dynamics
Direct
 -0.0000000000000000 -0.1220955591435108  0.0054898536076943   T   T   T
 -0.0000000000000000  0.3307616357627807  0.8396888630780026   T   T   T
 -0.0000000000000000 -0.0370246766131496  0.6781065418901215   T   T   T
 -0.0000000000000000  0.5492419566409091  0.4880176667932436   T   T   T
 -0.0000000000000000  0.1285463829596424  0.3244380419705564   T   T   T
 -0.0000000000000000  0.5743722911747389  0.1737770983200440   T   T   T
  0.5000000000000002  0.4017830694077890 -0.0039471450267477   T   T   T
  0.5000000000000002 -0.1488565026035011  0.8509962094352047   T   T   T
  0.5000000000000002  0.4481184321966180  0.6605508958483012   T   T   T
  0.5000000000000002  0.0637627850130747  0.5056390258281220   T   T   T
  0.5000000000000002  0.6497614542765240  0.3251742943039621   T   T   T
  0.5000000000000002  0.0939161518514810  0.1707115781824963   T   T   T
  0.5000000000000002  0.1109544124362342  0.9425998991897739   T   T   T
  0.5000000000000002  0.5806115338819302  0.9081119074302392   T   T   T
 -0.0000000000000000 -0.1205228611848200  0.8087286616828556   T   T   T
  0.5000000000000002  0.2298859651333379  0.7298747085230309   T   T   T
 -0.0000000000000000  0.5398242693686086  0.6312746880423612   T   T   T
 -0.0000000000000000 -0.0205032072316577  0.5390904119106904   T   T   T
  0.5000000000000002  0.2852078186443562  0.4372472696386490   T   T   T
 -0.0000000000000000  0.7157745628468944  0.3704510667157760   T   T   T
  0.5000000000000002  0.3626078483893768  0.2550372800989220   T   T   T
  0.5000000000000002  0.8677424498367077  0.2455693670830376   T   T   T
 -0.0000000000000000  0.1301247688030671  0.1238904471340991   T   T   T
  0.5000000000000002  0.6360051080174155  0.0728147198404178   T   T   T
