Sr Co O 
 1.0000000000000000
    -3.5821016206984080    0.0000000000000000    0.0000000000000000
     0.0000000000000000    4.0214080502572349    4.0214080502572349
     0.0000000000000000   12.1613091698437152  -12.1613091698437081
 Sr  Co  O  
   6   6  12
Selective dynamics
Direct
  0.0000000000000000 -0.0000000000000000 -0.0023658578706919   T   T   T
  0.0000000000000000  0.5000000000000010  0.8356991912040246   T   T   T
  0.0000000000000000  0.0000000000000013  0.6813293360683618   T   T   T
 -0.0000000000000000  0.5000000000000019  0.4904107577608382   T   T   T
  0.0000000000000000 -0.0000000000000002  0.3429225755724943   T   T   T
 -0.0000000000000000  0.5000000000000002  0.1520039972649709   T   T   T
  0.4999999999999998  0.5000000000000010 -0.0049232320827420   T   T   T
  0.4999999999999998  0.0000000000000018  0.8382565654160745   T   T   T
  0.4999999999999998  0.5000000000000001  0.6782948310975097   T   T   T
  0.4999999999999998  0.0000000000000000  0.4989871726980534   T   T   T
  0.4999999999999998  0.5000000000000010  0.3343461606352789   T   T   T
  0.4999999999999998  0.0000000000000002  0.1550385022358230   T   T   T
  0.4999999999999998  0.2659924805391093  0.0771843531727191   T   T   T
  0.4999999999999998  0.2500000000000014  0.9166666666666655   T   T   T
  0.4999999999999998  0.7500000000000029  0.9166666666666659   T   T   T
  0.4999999999999998  0.7659924805391117  0.7561489801606136   T   T   T
  0.4999999999999998  0.2340075194608912  0.7561489801606130   T   T   T
 -0.0000000000000000  0.5000000000000008  0.6334608434754398   T   T   T
  0.0000000000000000  0.0000000000000002  0.5396721339259690   T   T   T
  0.4999999999999998  0.7500000000000009  0.4166666666666660   T   T   T
  0.4999999999999998  0.2499999999999994  0.4166666666666663   T   T   T
  0.0000000000000000  0.5000000000000008  0.2936611994073640   T   T   T
  0.0000000000000000 -0.0000000000000001  0.1998724898578926   T   T   T
  0.4999999999999998  0.7340075194608924  0.0771843531727190   T   T   T
