Sr Co O 
 1.0000000000000000
    -3.6462817877633937    0.0000000000000000    0.0000000000000000
     0.0000000000000000    4.0669411553660728    4.5564256265923238
     0.0000000000000000   11.4269824930858750  -12.9638171373231028
 Sr  Co  O  
   6   6  12
Selective dynamics
Direct
 -0.0000000000000000 -0.1297954683706972  0.0010355357642417   T   T   T
 -0.0000000000000000  0.4823852450987031  0.8263986114393383   T   T   T
 -0.0000000000000000 -0.0520294562224963  0.6948354101119425   T   T   T
 -0.0000000000000000  0.5954693538766339  0.5167108921802526   T   T   T
 -0.0000000000000000  0.1222388300818523  0.3153765555867577   T   T   T
 -0.0000000000000000  0.5020821912750469  0.1732471172858170   T   T   T
  0.4999999999999986  0.4133663884733168 -0.0014308477195748   T   T   T
  0.4999999999999986  0.0160044439348926  0.8523104994401126   T   T   T
  0.4999999999999986  0.4136967586490555  0.6656168900113364   T   T   T
  0.4999999999999986  0.0824365035208145  0.5457645945507172   T   T   T
  0.4999999999999986  0.5937474431841407  0.3309207772538034   T   T   T
  0.4999999999999986  0.0047750694000209  0.1720755134608770   T   T   T
  0.4999999999999986  0.1185511489567617 -0.0354931185549633   T   T   T
  0.4999999999999986  0.6005626630979870  0.9201439436204986   T   T   T
 -0.0000000000000000 -0.0972112226794694  0.8329434567887012   T   T   T
  0.4999999999999986  0.2111316552715115  0.7543034991687193   T   T   T
 -0.0000000000000000  0.5326406624780029  0.6821764127687304   T   T   T
  0.4999999999999986  0.3634743215173454  0.5417863021174503   T   T   T
  0.4999999999999986  0.8357812771097155  0.5869948491181215   T   T   T
 -0.0000000000000000  0.5441403254770915  0.3752229139899324   T   T   T
  0.4999999999999986  0.3206042750035677  0.2506037036357135   T   T   T
  0.4999999999999986  0.8488443183799550  0.2713806331959303   T   T   T
 -0.0000000000000000  0.0585278126633511  0.1404451027708525   T   T   T
  0.4999999999999986  0.6185754036729811  0.0866308080306438   T   T   T
