Sr Co O 
 1.0000000000000000
    -3.5434996323461339    0.0000000000000000    0.0000000000000000
     0.0000000000000000    3.9871982381755684    4.1623036142741396
     0.0000000000000000   12.2115549025047994  -12.7565942607585701
 Sr  Co  O  
   6   6  12
Selective dynamics
Direct
 -0.0000000000000000 -0.0666190764708991  0.0044590669947744   T   T   T
 -0.0000000000000000  0.5005975362492269  0.8338771241512699   T   T   T
 -0.0000000000000000 -0.1140532623121527  0.6637967884694078   T   T   T
 -0.0000000000000000  0.4637288492403691  0.4952811078791879   T   T   T
 -0.0000000000000000  0.0979712164078638  0.3232709670942836   T   T   T
 -0.0000000000000000  0.5821979077119619  0.1709237213255159   T   T   T
  0.5000000000000002  0.4686330072377922 -0.0088401544713265   T   T   T
  0.5000000000000002 -0.0404055992395007  0.8223123848853917   T   T   T
  0.5000000000000002  0.4110248966638685  0.6595921653533995   T   T   T
  0.5000000000000002 -0.0441490513704088  0.4935039459702016   T   T   T
  0.5000000000000002  0.6166097398904286  0.3293877143799158   T   T   T
  0.5000000000000002  0.0913119823229882  0.1718781338127296   T   T   T
 -0.0000000000000000  0.3435258755829987 -0.0368962175324673   T   T   T
  0.5000000000000002  0.7542226137881302  0.9071740843187348   T   T   T
 -0.0000000000000000  0.0769602146264715  0.7949525164076908   T   T   T
  0.5000000000000002  0.6554666370769735  0.7382230597411339   T   T   T
 -0.0000000000000000  0.3079343936468288  0.6295056754590247   T   T   T
  0.5000000000000002  0.7365170239008189  0.5636779546420628   T   T   T
  0.5000000000000002  0.2019307072950680  0.4361772670843587   T   T   T
 -0.0000000000000000  0.6718046862210943  0.3786903400245872   T   T   T
  0.5000000000000002  0.3492949402634520  0.2569678704990829   T   T   T
  0.5000000000000002  0.8504706664591775  0.2494842432732967   T   T   T
 -0.0000000000000000  0.1393961789379821  0.1317200384465614   T   T   T
  0.5000000000000002  0.6956280408333534  0.0742134899956785   T   T   T
