Sr Co O 
 1.0000000000000000
     3.6193446472144846    0.0000000000000000    0.0000000000000000
     0.0000000000000000    8.3295998201824659    0.0000000000000000
     0.0000000000000000    0.0000000000000000    8.0374292379278121
 Sr  Co  O  
   4   4   8
Selective dynamics
Direct
  0.0000000000000000  0.0020343587235500 -0.0000000000000000   T   T   T
 -0.0000000000000000 -0.0289740747014357  0.4999999999999998   T   T   T
  0.0000000000000000  0.4979656412764497  0.0000000000000000   T   T   T
 -0.0000000000000000  0.5289740747014356  0.4999999999999998   T   T   T
  0.4999999999999997  0.2499999999999999  0.2407057203107651   T   T   T
  0.4999999999999997  0.2499999999999999  0.7592942796892354   T   T   T
  0.4999999999999997  0.7500000000000001  0.2537913309523910   T   T   T
  0.4999999999999997  0.7500000000000001  0.7462086690476095   T   T   T
  0.4999999999999997  0.2499999999999999  0.0000000000000000   T   T   T
  0.4999999999999997  0.0350203326506155  0.2749974694198459   T   T   T
  0.4999999999999997  0.0350203326506155  0.7250025305801543   T   T   T
  0.0000000000000000  0.7500000000000001  0.1795483510397353   T   T   T
  0.4999999999999997  0.4649796673493843  0.2749974694198459   T   T   T
  0.4999999999999997  0.7500000000000001  0.4999999999999998   T   T   T
 -0.0000000000000000  0.7500000000000001  0.8204516489602648   T   T   T
  0.4999999999999997  0.4649796673493843  0.7250025305801543   T   T   T
