Sr Co O 
 1.0000000000000000
    -4.1324401173412530   -0.3711382463466950   -4.1324401173412557
    -4.0620634085770329   -0.0000000000000001    4.0620634085770533
     0.3225457326049909    7.1033246810619577    0.3225457326049925
 Sr  Co  O  
   4   4   8
Selective dynamics
Direct
  0.0245143572130674  0.0000000000000001 -0.0340767153207610   T   T   T
  0.5245624062668244  0.5000000000000000  0.0155792371868402   T   T   T
 -0.0245624062668258  0.0000000000000001  0.4844207628131599   T   T   T
  0.4754856427869321  0.5000000000000008  0.5340767153207604   T   T   T
  0.4570132458116327  0.0000000000000004  0.2487728988044368   T   T   T
  0.0429867541883662  0.5000000000000000  0.2512271011955637   T   T   T
  0.5044575733172679  0.0000000000000005  0.7586978887421434   T   T   T
 -0.0044575733172688  0.5000000000000008  0.7413021112578591   T   T   T
  0.7293115985416054  0.0000000000000010  0.1693211942517702   T   T   T
  0.2499999999999998  0.2500000000000004  0.2500000000000003   T   T   T
  0.2500000000000001  0.7500000000000004  0.2500000000000002   T   T   T
  0.7499999999999996  0.7500000000000011  0.7500000000000010   T   T   T
  0.7499999999999993  0.2500000000000016  0.7500000000000001   T   T   T
  0.2499999999999999  0.2500000000000003  0.7500000000000017   T   T   T
  0.2499999999999995  0.7500000000000004  0.7500000000000024   T   T   T
 -0.2293115985416069  0.5000000000000003  0.3306788057482301   T   T   T
