Sr Co O 
 1.0000000000000000
    -3.5482487293530593    0.0000000000000000    0.0000000000000000
     0.0000000000000000    4.1735711121777594    3.8995828827343404
     0.0000000000000000   12.8965934096832946  -12.0656828553016933
 Sr  Co  O  
   6   6  12
Selective dynamics
Direct
 -0.0000000000000000 -0.0645794028637527  0.0154075860990191   T   T   T
 -0.0000000000000000  0.5756695343279684  0.8411745729634575   T   T   T
 -0.0000000000000000 -0.0166251683318251  0.6748259025972189   T   T   T
 -0.0000000000000000  0.4934502048372555  0.4911852527052472   T   T   T
 -0.0000000000000000  0.0066180879227230  0.3348199485878907   T   T   T
 -0.0000000000000000  0.5240415121288791  0.1793715576075917   T   T   T
  0.4999999999999990  0.4734967300960311 -0.0010789223484540   T   T   T
  0.4999999999999990  0.0530213047587049  0.8384765704183688   T   T   T
  0.4999999999999990  0.4970154722853161  0.6668720008868690   T   T   T
  0.4999999999999990 -0.0204159837031387  0.4919330507056385   T   T   T
  0.4999999999999990  0.5065439495956027  0.3390106377325146   T   T   T
  0.4999999999999990  0.0275915537792778  0.1833002216704257   T   T   T
 -0.0000000000000000  0.3608523308113331 -0.0302327281451109   T   T   T
  0.4999999999999990  0.7968289133690752  0.9145761618430992   T   T   T
 -0.0000000000000000  0.1524721188279935  0.8051473151927834   T   T   T
  0.4999999999999990  0.7341700116031586  0.7377628321951748   T   T   T
 -0.0000000000000000  0.4184679476952372  0.6358380063824990   T   T   T
 -0.0000000000000000 -0.0629158222639492  0.5392297642507302   T   T   T
  0.4999999999999990  0.7325103816461500  0.4160076087030997   T   T   T
  0.4999999999999990  0.2666978292912396  0.4232383117737478   T   T   T
  0.4999999999999990  0.2782631653534206  0.2659269106171880   T   T   T
  0.4999999999999990  0.7540926073695735  0.2612507605443432   T   T   T
 -0.0000000000000000  0.0910082667468436  0.1433409160062767   T   T   T
  0.4999999999999990  0.6717246093077722  0.0826157496925466   T   T   T
