Sr Co O 
 1.0000000000000000
    -3.5042759673085366    0.0000000000000000    0.0000000000000000
     0.0000000000000000    4.2401618962311574    3.9764241433278533
     0.0000000000000000   12.9569121736956738  -12.1735246095244829
 Sr  Co  O  
   6   6  12
Selective dynamics
Direct
 -0.0000000000000000  0.0264575191021081  0.0044967126036093   T   T   T
 -0.0000000000000000  0.3351261801488044  0.8301097553378055   T   T   T
 -0.0000000000000000 -0.0304030401730637  0.6624106053657707   T   T   T
 -0.0000000000000000  0.4205777199917567  0.4926904354939100   T   T   T
 -0.0000000000000000  0.0960532790422837  0.3235397752873225   T   T   T
 -0.0000000000000000  0.6296890251894628  0.1705003473206463   T   T   T
  0.5000000000000000  0.5434411186321663 -0.0053106656484370   T   T   T
  0.5000000000000000 -0.1461296134775451  0.8270961485676014   T   T   T
  0.5000000000000000  0.4433233052646340  0.6498551448928991   T   T   T
  0.5000000000000000 -0.0521483229065087  0.5043327588986728   T   T   T
  0.5000000000000000  0.6155252468860533  0.3274577304396273   T   T   T
  0.5000000000000000  0.1441580584761408  0.1720395537101251   T   T   T
 -0.0000000000000000  0.4724809303290180 -0.0393882377653009   T   T   T
  0.5000000000000000  0.0743620093651165  0.8998250045088948   T   T   T
 -0.0000000000000000 -0.2374219195522239  0.7884610025729033   T   T   T
  0.5000000000000000  0.2421642893077257  0.7325804668797051   T   T   T
  0.5000000000000000  0.1905689005132585  0.5800339952918001   T   T   T
  0.5000000000000000  0.6964985002140496  0.5788002330143619   T   T   T
  0.5000000000000000  0.1653929509994324  0.4264566847754365   T   T   T
 -0.0000000000000000  0.6596139029723924  0.3783166248587277   T   T   T
  0.5000000000000000  0.3749603614760242  0.2540105959061537   T   T   T
  0.5000000000000000  0.8725389632780957  0.2456825098017599   T   T   T
 -0.0000000000000000  0.2026628808061162  0.1273366008273351   T   T   T
  0.5000000000000000  0.7605078588293587  0.0686662491451149   T   T   T
