Sr Co O 
 1.0000000000000000
    -3.7214616283338406    0.0000000000000000    0.0000000000000000
     0.0000000000000000    3.8992018444248995    7.9056608444115835
     0.0000000000000000    7.8669191190872940   -7.9397088202829789
 Sr  Co  O  
   6   6  14
Selective dynamics
Direct
 -0.0000000000000000 -0.0105468917845927  0.0090455620491479   T   T   T
  0.0000000000000000  0.3267441204935136  0.8267839891785015   T   T   T
 -0.0000000000000000  0.6732558795064881  0.6732160108214988   T   T   T
  0.0000000000000000  0.0105468917845937  0.4909544379508526   T   T   T
  0.0000000000000000  0.3257403993512983  0.3194897432350830   T   T   T
  0.0000000000000000  0.6742596006487031  0.1805102567649171   T   T   T
  0.4999999999999999  0.3353883365533910  0.0815490481645235   T   T   T
  0.4999999999999999  0.6560258066713106  0.9131116671066679   T   T   T
  0.4999999999999999  0.0000000000000008  0.7500000000000000   T   T   T
  0.4999999999999999  0.3439741933286906  0.5868883328933323   T   T   T
  0.4999999999999999  0.6646116634466100  0.4184509518354765   T   T   T
  0.4999999999999999  0.0000000000000001  0.2500000000000001   T   T   T
  0.4999999999999999  0.1589206301250475  0.1514665481379114   T   T   T
  0.0000000000000000  0.2910408830516406  0.0385189901334904   T   T   T
  0.4999999999999999  0.4867752236612352 -0.0197702876311993   T   T   T
  0.4999999999999999  0.5000000000000006  0.7500000000000001   T   T   T
  0.4999999999999999  0.8266184263091887  0.8360381157228346   T   T   T
 -0.0000000000000000  0.0000000000000008  0.7500000000000000   T   T   T
  0.4999999999999999  0.1733815736908129  0.6639618842771657   T   T   T
  0.4999999999999999  0.1963158142569545  0.4302649761261080   T   T   T
  0.4999999999999999  0.5132247763387654  0.5197702876311987   T   T   T
 -0.0000000000000000  0.7089591169483606  0.4614810098665098   T   T   T
  0.4999999999999999  0.5000000000000002  0.2499999999999999   T   T   T
  0.4999999999999999  0.8410793698749544  0.3485334518620894   T   T   T
 -0.0000000000000000  0.0000000000000001  0.2500000000000001   T   T   T
  0.4999999999999999  0.8036841857430467  0.0697350238738927   T   T   T
