Sr Co O 
 1.0000000000000000
    -3.5890315492485749    0.0000000000000000    0.0000000000000000
     0.0000000000000000    4.1263389432094373    4.0955025687341440
     0.0000000000000000   12.7225432018523641  -12.6428189335739223
 Sr  Co  O  
   6   6  12
Selective dynamics
Direct
 -0.0000000000000000 -0.0099524201912513  0.0168902720910429   T   T   T
 -0.0000000000000000  0.2832661610840672  0.8105725164038865   T   T   T
 -0.0000000000000000 -0.1078515283282168  0.6645337932455919   T   T   T
 -0.0000000000000000  0.4872515283809852  0.4859360058389571   T   T   T
 -0.0000000000000000  0.1187987970540154  0.3297429713187508   T   T   T
 -0.0000000000000000  0.6129242172909456  0.1759621995872519   T   T   T
  0.5000000000000000  0.5557522913353957 -0.0255974535147113   T   T   T
  0.5000000000000000 -0.1712099829804447  0.8469961420815488   T   T   T
  0.5000000000000000  0.4460440641187620  0.6448019705888471   T   T   T
  0.5000000000000000  0.0176899847865629  0.5109955836660008   T   T   T
  0.5000000000000000  0.6366125168945043  0.3252814134068774   T   T   T
  0.5000000000000000  0.1394617263593856  0.1759891876086798   T   T   T
  0.5000000000000000  0.4873387330635456  0.8779144757923011   T   T   T
 -0.0000000000000000 -0.0701528148406468  0.8857847165526381   T   T   T
  0.5000000000000000  0.0091795708115233  0.7521942941933508   T   T   T
 -0.0000000000000000  0.4520458288988221  0.6838020067488441   T   T   T
  0.5000000000000000  0.6850056589417142  0.5665939629415635   T   T   T
 -0.0000000000000000  0.1021178773463562  0.5490037206409066   T   T   T
  0.5000000000000000  0.2218146551721037  0.4244691206753958   T   T   T
 -0.0000000000000000  0.6893459425851733  0.3660899068024508   T   T   T
  0.5000000000000000  0.3816265900624224  0.2527209722424708   T   T   T
  0.5000000000000000  0.8689163983422363  0.2394447872903717   T   T   T
 -0.0000000000000000  0.1920327290941382  0.1313036023158332   T   T   T
  0.5000000000000000  0.7219418839506720  0.0585738768082039   T   T   T
