Sr Co O 
 1.0000000000000000
    -3.6029512123803031    0.0000000000000000    0.0000000000000000
     0.0000000000000000    4.3028606774699352    7.8791742296084584
     0.0000000000000000    8.7563293809507154   -7.9572437537857468
 Sr  Co  O  
   6   6  13
Selective dynamics
Direct
 -0.0000000000000000 -0.0406345523277320  0.0258155789128226   T   T   T
 -0.0000000000000000  0.3370610248468299  0.8089915118468552   T   T   T
 -0.0000000000000000  0.6392634986964031  0.6325126186019271   T   T   T
 -0.0000000000000000  0.0148626975311327  0.5400579126675430   T   T   T
 -0.0000000000000000  0.3822604332186414  0.3354903298217981   T   T   T
 -0.0000000000000000  0.6486701404622054  0.1598582434657954   T   T   T
  0.5000000000000003  0.3026846646174006  0.0585675104872985   T   T   T
  0.5000000000000003  0.6549550356805556  0.8891808627179183   T   T   T
  0.5000000000000003 -0.0292769670084919  0.7605613140797035   T   T   T
  0.5000000000000003  0.3526960148149090  0.5757886147061555   T   T   T
  0.5000000000000003  0.7162901625858322  0.4279372974159535   T   T   T
  0.5000000000000003 -0.0004769227715744  0.2674440127546303   T   T   T
 -0.0000000000000000  0.2409334983923897  0.0007640649933900   T   T   T
 -0.0000000000000000  0.6133022112768832  0.9433305069886042   T   T   T
  0.5000000000000003  0.5030298524946041  0.7342407460664245   T   T   T
  0.5000000000000003  0.8748518694984440  0.8794541332189423   T   T   T
  0.5000000000000003  0.8298788920634423  0.6094925031499130   T   T   T
  0.5000000000000003  0.1525136161771051  0.7168467176087027   T   T   T
 -0.0000000000000000  0.2899342589981474  0.5429762700205572   T   T   T
  0.5000000000000003  0.5123287808212112  0.4771699705596828   T   T   T
 -0.0000000000000000  0.6865856343734500  0.3841151765009708   T   T   T
  0.5000000000000003  0.4562686831890428  0.1951382917859577   T   T   T
  0.5000000000000003  0.9307021812906505  0.4010809043415174   T   T   T
 -0.0000000000000000  0.0911644728464772  0.2513505479007713   T   T   T
  0.5000000000000003  0.8401507503731492  0.1318343295690409   T   T   T
