Sr Co O 
 1.0000000000000000
    -3.7620863486975979    0.0000000000000000    0.0000000000000000
     0.0000000000000000    4.0619486033925014    7.8252611342902245
     0.0000000000000000    7.9846953699771213   -7.7565892861872596
 Sr  Co  O  
   6   6  13
Selective dynamics
Direct
 -0.0000000000000000  0.0023349574973718  0.0069350799455652   T   T   T
 -0.0000000000000000  0.3029367009619539  0.8341409731553802   T   T   T
 -0.0000000000000000  0.6393371328380301  0.6583713637252243   T   T   T
 -0.0000000000000000  0.0159694773893278  0.4784567113439768   T   T   T
 -0.0000000000000000  0.3594013486462183  0.3394313312846086   T   T   T
 -0.0000000000000000  0.6881528410133828  0.1807636497572357   T   T   T
  0.4999999999999999  0.3339600437083861  0.0871400395874873   T   T   T
  0.4999999999999999  0.6779288747273197  0.9225076709509535   T   T   T
  0.4999999999999999 -0.0082818028084300  0.7591689208737245   T   T   T
  0.4999999999999999  0.3186637678215765  0.5750099123175302   T   T   T
  0.4999999999999999  0.6753095218434088  0.4182486818172203   T   T   T
  0.4999999999999999  0.0091049150435765  0.2491662959731648   T   T   T
 -0.0000000000000000  0.3140201969558968  0.0876336244795735   T   T   T
  0.4999999999999999  0.1601280812378306  0.9201059519560824   T   T   T
 -0.0000000000000000  0.5945959666493550  0.9155001637448751   T   T   T
  0.4999999999999999  0.8004232134405089  0.7914138641580141   T   T   T
  0.4999999999999999  0.1072685159609082  0.6502915940546946   T   T   T
 -0.0000000000000000  0.3503583205225754  0.6262910847679529   T   T   T
  0.4999999999999999  0.1852071729876031  0.3978077491788690   T   T   T
  0.4999999999999999  0.5182483815827277  0.5068120246262106   T   T   T
 -0.0000000000000000  0.7163884771776831  0.4568662821002520   T   T   T
  0.4999999999999999  0.5067108526823941  0.2346884828636393   T   T   T
  0.4999999999999999  0.8410755638490811  0.3388253776061174   T   T   T
 -0.0000000000000000  0.0404945847338858  0.2340589136029884   T   T   T
  0.4999999999999999  0.8502630210750651  0.0803642943966064   T   T   T
