Sr Co O 
 1.0000000000000000
    -3.7040051640419516    0.0000000000000000    0.0000000000000000
     0.0000000000000000    4.1425747515585600    7.7653190243412906
     0.0000000000000000    8.2195040627636047   -7.7332057286532274
 Sr  Co  O  
   6   6  13
Selective dynamics
Direct
 -0.0000000000000000 -0.0105422120558451 -0.0091106063820802   T   T   T
 -0.0000000000000000  0.3413542780422749  0.8328635149091903   T   T   T
 -0.0000000000000000  0.6745433161739967  0.6771738230538404   T   T   T
 -0.0000000000000000 -0.0297842708797333  0.4929415119512718   T   T   T
 -0.0000000000000000  0.3644394215249590  0.3151202618056181   T   T   T
 -0.0000000000000000  0.6871497289832348  0.1830639283426593   T   T   T
  0.5000000000000000  0.3184596665716474  0.0650338915297747   T   T   T
  0.5000000000000000  0.6801318165225968  0.9254919461483674   T   T   T
  0.5000000000000000  0.0067988607037866  0.7450777758371369   T   T   T
  0.5000000000000000  0.3397785302791177  0.5935050250722590   T   T   T
  0.5000000000000000  0.6646606595349567  0.4296246955851836   T   T   T
  0.5000000000000000  0.0021844497788555  0.2558026699001377   T   T   T
 -0.0000000000000000  0.2854565834546254  0.0734826629710987   T   T   T
  0.5000000000000000  0.1779884365020440  0.8928310665007742   T   T   T
 -0.0000000000000000  0.6225373397745018  0.9501416945446858   T   T   T
  0.5000000000000000  0.4967601756409649  0.7459056471129251   T   T   T
  0.5000000000000000  0.8545376407625618  0.8359022378935547   T   T   T
  0.5000000000000000  0.8366236031212498  0.6032056035630698   T   T   T
  0.5000000000000000  0.1516761870909361  0.6363238587851001   T   T   T
  0.5000000000000000  0.4442575169191411  0.4748151106776320   T   T   T
 -0.0000000000000000  0.6571329023319959  0.4269532334161660   T   T   T
  0.5000000000000000  0.4872100057137771  0.2057612351520421   T   T   T
  0.5000000000000000  0.8358800620607211  0.3447000843665311   T   T   T
 -0.0000000000000000  0.0796952352630750  0.2962371385536239   T   T   T
  0.5000000000000000  0.8644034454992864  0.0904853348635508   T   T   T
