Sr Co O 
 1.0000000000000000
    -3.6780410545354560    0.0000000000000000    0.0000000000000000
     0.0000000000000000    3.9533656334990019    8.2644436247056845
     0.0000000000000000    7.8754854932412339   -8.2496870689648265
 Sr  Co  O  
   6   6  13
Selective dynamics
Direct
 -0.0000000000000000 -0.0039102967945685  0.0063819539650665   T   T   T
 -0.0000000000000000  0.2962832648485551  0.8240322216670132   T   T   T
 -0.0000000000000000  0.6682067857888642  0.6688436089636932   T   T   T
 -0.0000000000000000  0.0290070638965457  0.4968960221453543   T   T   T
 -0.0000000000000000  0.3233103228352293  0.3303014999081988   T   T   T
 -0.0000000000000000  0.6998416035886579  0.1857754554822340   T   T   T
  0.5000000000000002  0.3329937693755620  0.0729096856639415   T   T   T
  0.5000000000000002  0.6551994273884487  0.9352865364506946   T   T   T
  0.5000000000000002  0.0043626051162114  0.7435758854650359   T   T   T
  0.5000000000000002  0.3389085622986551  0.5898837923624893   T   T   T
  0.5000000000000002  0.6453348010860223  0.3977579833373802   T   T   T
  0.5000000000000002  0.0196696448368616  0.2511163058937237   T   T   T
  0.5000000000000002  0.1918355199171363  0.1608867068493506   T   T   T
  0.5000000000000002  0.1530495846538198  0.9228049143170304   T   T   T
  0.5000000000000002  0.4728383815597362 -0.0311013990127759   T   T   T
  0.5000000000000002  0.7626007630398007  0.8292359972459860   T   T   T
 -0.0000000000000000 -0.0541547367591705  0.6974113547528705   T   T   T
  0.5000000000000002  0.1662772149838080  0.6625155372726955   T   T   T
 -0.0000000000000000  0.3934884095205050  0.6448548135937773   T   T   T
  0.5000000000000002  0.1904866917691342  0.4149138808719455   T   T   T
  0.5000000000000002  0.5399123715729673  0.5041761115446768   T   T   T
  0.5000000000000002  0.5104964073688029  0.2232305968369086   T   T   T
  0.5000000000000002  0.8309873260718845  0.3748567791844988   T   T   T
 -0.0000000000000000  0.0053944277546870  0.2525857482530224   T   T   T
  0.5000000000000002  0.8275801543177720  0.0908680133898839   T   T   T
