Sr Co O 
 1.0000000000000000
    -3.6447433572351229    0.0000000000000000    0.0000000000000000
     0.0000000000000000    4.4522014309000317    7.6335347394168407
     0.0000000000000000    8.8685818977126143   -7.6187159306772720
 Sr  Co  O  
   6   6  13
Selective dynamics
Direct
 -0.0000000000000000 -0.0394977987689184 -0.0164729292698138   T   T   T
 -0.0000000000000000  0.3234424120704329  0.8237211074023207   T   T   T
 -0.0000000000000000  0.7207840417541653  0.6904443159651809   T   T   T
 -0.0000000000000000 -0.0106264229672863  0.4650593786477834   T   T   T
 -0.0000000000000000  0.3287507164144984  0.3252674226803868   T   T   T
 -0.0000000000000000  0.6673558798939914  0.2052664778022442   T   T   T
  0.4999999999999999  0.3129745419769476  0.0754053867223104   T   T   T
  0.4999999999999999  0.6709193326885317  0.9267251805639161   T   T   T
  0.4999999999999999  0.0164651990331832  0.7332721603374059   T   T   T
  0.4999999999999999  0.3405694294056451  0.5724400548985964   T   T   T
  0.4999999999999999  0.6756281570876086  0.4560209651073552   T   T   T
  0.4999999999999999 -0.0275264119814763  0.2243987167373357   T   T   T
 -0.0000000000000000  0.2579836259205796  0.0205320787086496   T   T   T
 -0.0000000000000000  0.5988883310704427  0.8868443150243629   T   T   T
  0.4999999999999999  0.8486842994694650  0.8414651604944147   T   T   T
 -0.0000000000000000  0.0356003916836094  0.7737899910164807   T   T   T
  0.4999999999999999  0.8726134837159434  0.5831552305581710   T   T   T
  0.4999999999999999  0.2379861095545844  0.6983871110140307   T   T   T
  0.4999999999999999  0.2046798406859174  0.4324643114366102   T   T   T
  0.4999999999999999  0.5485427774390972  0.5894458859468183   T   T   T
 -0.0000000000000000  0.6245866752046686  0.4186239202592538   T   T   T
  0.4999999999999999  0.4498702257113767  0.2146465351238043   T   T   T
  0.4999999999999999  0.8270561715836413  0.3375172806276550   T   T   T
 -0.0000000000000000  0.0482364752177803  0.2211835435316181   T   T   T
  0.4999999999999999  0.7993657957809744  0.0837298069078933   T   T   T
