Sr Co O 
 1.0000000000000000
    -3.6633274590748859    0.0000000000000000    0.0000000000000000
     0.0000000000000000    4.1405250180220996    8.0516558811509462
     0.0000000000000000    7.9837643496767550   -7.9058685817136212
 Sr  Co  O  
   6   6  13
Selective dynamics
Direct
 -0.0000000000000000  0.0393908362810794  0.0362515763677419   T   T   T
 -0.0000000000000000  0.4001366210911743  0.8491095791557838   T   T   T
 -0.0000000000000000  0.6658952809867429  0.6518462533383935   T   T   T
 -0.0000000000000000 -0.0152075596866608  0.4959902238587707   T   T   T
 -0.0000000000000000  0.3011027705852073  0.3564030258301135   T   T   T
 -0.0000000000000000  0.7140742786975079  0.1503991785715674   T   T   T
  0.5000000000000003  0.4092893136956676  0.1407197195468190   T   T   T
  0.5000000000000003  0.7046859958664953  0.9129360219845504   T   T   T
  0.5000000000000003  0.0405877275166063  0.7728151266046945   T   T   T
  0.5000000000000003  0.3407882344140056  0.5911553250631387   T   T   T
  0.5000000000000003  0.6127835058203365  0.3653589478099344   T   T   T
  0.5000000000000003 -0.0007206298548670  0.2637138527836616   T   T   T
  0.5000000000000003  0.5112659212361021  0.0160605873795575   T   T   T
 -0.0000000000000000  0.7467348611610201  0.8905207884670002   T   T   T
  0.5000000000000003  0.5284529095085918  0.7522933872479275   T   T   T
 -0.0000000000000000  0.1127930153778982  0.8342582839639171   T   T   T
  0.5000000000000003  0.8744205192109604  0.6292088501680050   T   T   T
 -0.0000000000000000  0.2935535495631185  0.6145969018395108   T   T   T
  0.5000000000000003  0.1458279844569339  0.4337706749546379   T   T   T
  0.5000000000000003  0.5027691023642613  0.4840317980229815   T   T   T
 -0.0000000000000000  0.5090145217305758  0.2533517089135822   T   T   T
  0.5000000000000003  0.2160996404162439  0.1655963883559620   T   T   T
  0.5000000000000003  0.8028519978207336  0.3335838111687823   T   T   T
 -0.0000000000000000  0.0080167290620173  0.2590322960746712   T   T   T
  0.5000000000000003  0.8687262027315288  0.0803291135371024   T   T   T
