Sr Co O 
 1.0000000000000000
    -3.6334176785127905    0.0000000000000000    0.0000000000000000
     0.0000000000000000    3.8786810094872148    8.5353542156052065
     0.0000000000000000    7.9905639013230383   -8.6512712133716807
 Sr  Co  O  
   6   6  13
Selective dynamics
Direct
 -0.0000000000000000 -0.0264731268849332 -0.0204663954726210   T   T   T
 -0.0000000000000000  0.3567582877508849  0.8615142107038983   T   T   T
 -0.0000000000000000  0.6982165347903218  0.6631450242709288   T   T   T
 -0.0000000000000000  0.0016749972648365  0.4599979679287232   T   T   T
 -0.0000000000000000  0.3632925785821348  0.3585518610330273   T   T   T
 -0.0000000000000000  0.7004944586274128  0.1444557219155502   T   T   T
  0.4999999999999986  0.3556774078702687  0.0931872493652471   T   T   T
  0.4999999999999986  0.6467717069087500  0.9065105205207741   T   T   T
  0.4999999999999986  0.0275563649872363  0.7253080007954086   T   T   T
  0.4999999999999986  0.3599838177000845  0.5948642904105972   T   T   T
  0.4999999999999986  0.6788416016433723  0.3884352535909686   T   T   T
  0.4999999999999986  0.0072552716826081  0.2354679442657532   T   T   T
 -0.0000000000000000  0.2605754684852797  0.0354609150754111   T   T   T
  0.4999999999999986  0.5143995095488215  0.0148589724066764   T   T   T
 -0.0000000000000000  0.6678395604425377  0.8807998480910433   T   T   T
  0.4999999999999986  0.4372683737033479  0.7593803682496887   T   T   T
  0.4999999999999986  0.8859098705110319  0.7990999381347524   T   T   T
 -0.0000000000000000  0.0804876757593349  0.6959750317791382   T   T   T
  0.4999999999999986  0.1862267535337580  0.4570943445537705   T   T   T
  0.4999999999999986  0.5175247895587116  0.5382510861099031   T   T   T
 -0.0000000000000000  0.7281627471847852  0.4588324082908130   T   T   T
  0.4999999999999986  0.4635485234469061  0.2685220741938964   T   T   T
  0.4999999999999986  0.8392035320120105  0.3085528409046777   T   T   T
 -0.0000000000000000  0.0716432136250617  0.2319804759379116   T   T   T
  0.4999999999999986  0.8438269310022430  0.0568866355628291   T   T   T
