Sr Co O 
 1.0000000000000000
    -3.6973712872651743    0.0000000000000000    0.0000000000000000
     0.0000000000000000    3.9362279094902513    8.3072922681546633
     0.0000000000000000    7.9481115911863309   -8.3431070434771684
 Sr  Co  O  
   6   6  13
Selective dynamics
Direct
 -0.0000000000000000 -0.0357388717111888 -0.0163377905096531   T   T   T
 -0.0000000000000000  0.3454441927994980  0.8455904709400882   T   T   T
 -0.0000000000000000  0.6554273717298897  0.6693169523367457   T   T   T
 -0.0000000000000000 -0.0192529625181811  0.4829741956686376   T   T   T
 -0.0000000000000000  0.3640441161179352  0.3594026557274339   T   T   T
 -0.0000000000000000  0.6868907117633195  0.1509446554184528   T   T   T
  0.5000000000000002  0.3438471385472868  0.0869446586003489   T   T   T
  0.5000000000000002  0.6539936655387009  0.9085252135235892   T   T   T
  0.5000000000000002  0.0139528971287131  0.7701131873344681   T   T   T
  0.5000000000000002  0.3413018053654470  0.5865110916519657   T   T   T
  0.5000000000000002  0.6590241004962278  0.4069926222875743   T   T   T
  0.5000000000000002 -0.0030513054508850  0.2398087407059886   T   T   T
  0.5000000000000002  0.1585051350455288  0.9576785852151608   T   T   T
  0.5000000000000002  0.4999020081748872  0.0180095586697267   T   T   T
 -0.0000000000000000  0.6578359161810207  0.9105334464205720   T   T   T
  0.5000000000000002  0.4573468541884421  0.7611895800186502   T   T   T
  0.5000000000000002  0.8201053671967341  0.8022423807104582   T   T   T
 -0.0000000000000000  0.0458129793759691  0.7180033945006340   T   T   T
 -0.0000000000000000  0.2676471757707332  0.5487053186735920   T   T   T
  0.5000000000000002  0.5002143479019359  0.5113204620331865   T   T   T
 -0.0000000000000000  0.7017144542362712  0.4591116037832773   T   T   T
  0.5000000000000002  0.4546104265132281  0.2522483887431117   T   T   T
  0.5000000000000002  0.8526977521757305  0.3376360594072540   T   T   T
 -0.0000000000000000  0.0746864652326168  0.2451937859019325   T   T   T
  0.5000000000000002  0.8363716394970199  0.0706741504498537   T   T   T
