Sr Co O 
 1.0000000000000000
    -3.6823238156046032    0.0000000000000000    0.0000000000000000
     0.0000000000000000    3.9385289137491108    8.3813076531810093
     0.0000000000000000    7.9800161261615656   -8.4289806513085690
 Sr  Co  O  
   6   6  12
Selective dynamics
Direct
 -0.0000000000000000  0.0138054109534790  0.0262489372884289   T   T   T
 -0.0000000000000000  0.3258623047418518  0.8565998640128868   T   T   T
 -0.0000000000000000  0.6455043301335444  0.6403988958539043   T   T   T
 -0.0000000000000000 -0.0348595287743088  0.4717283426723791   T   T   T
 -0.0000000000000000  0.3034935333673550  0.3554069813916192   T   T   T
 -0.0000000000000000  0.6962846100716631  0.1469640529857086   T   T   T
  0.4999999999999999  0.3318995743647614  0.0822909926479008   T   T   T
  0.4999999999999999  0.6444485000304551  0.9080047820619579   T   T   T
  0.4999999999999999  0.0179122497536074  0.7446767334574764   T   T   T
  0.4999999999999999  0.3037578414144943  0.5916129403810714   T   T   T
  0.4999999999999999  0.6314583252170043  0.3765945513602412   T   T   T
  0.4999999999999999 -0.0117731438848572  0.2536204740792731   T   T   T
  0.4999999999999999  0.2476061242868663  0.1997697124006038   T   T   T
  0.4999999999999999  0.1373835836124982  0.9291952920756530   T   T   T
 -0.0000000000000000 -0.0729418936083036  0.6865005470903603   T   T   T
  0.4999999999999999  0.2178162911771836  0.7099166118218366   T   T   T
 -0.0000000000000000  0.5965842203007476  0.8393792960217256   T   T   T
  0.4999999999999999  0.1355307248686997  0.4383273779193397   T   T   T
  0.4999999999999999  0.4746195167175197  0.5471589587386688   T   T   T
 -0.0000000000000000  0.5997558793843362  0.3963682368039068   T   T   T
  0.4999999999999999  0.4927004265618222  0.0231310324019152   T   T   T
  0.4999999999999999  0.7991725719889995  0.3182377179422577   T   T   T
 -0.0000000000000000  0.0025194184599620  0.2399931065334278   T   T   T
  0.4999999999999999  0.8347926045097149  0.0512079332088084   T   T   T
