Sr Co O 
 1.0000000000000000
    -3.7298669954602395    0.0000000000000000    0.0000000000000000
     0.0000000000000000    4.0517840631722599    7.9202599804720126
     0.0000000000000000    8.2414593079341909   -7.9906121915932884
 Sr  Co  O  
   6   6  13
Selective dynamics
Direct
  0.0000000000000000 -0.0258380846905641  0.0049722129859015   T   T   T
 -0.0000000000000000  0.3333333333333333  0.8333333333333335   T   T   T
 -0.0000000000000000  0.6925047513572302  0.6616944536807644   T   T   T
  0.0000000000000000 -0.0064466266313577  0.4739330574626232   T   T   T
 -0.0000000000000000  0.3333333333333336  0.3333333333333335   T   T   T
 -0.0000000000000000  0.6731132932980238  0.1927336092040425   T   T   T
  0.4999999999999999  0.3457236079519093  0.0921258667390264   T   T   T
  0.4999999999999999  0.6568656903444003  0.9350766657496493   T   T   T
  0.4999999999999999  0.0098009763222650  0.7315900009170160   T   T   T
  0.4999999999999999  0.3209430587147574  0.5745407999276400   T   T   T
  0.4999999999999999  0.6682926905954892  0.4178880414024937   T   T   T
  0.4999999999999999 -0.0016260239288227  0.2487786252641724   T   T   T
 -0.0000000000000000  0.2658825204630706  0.0830467319712057   T   T   T
  0.4999999999999999  0.4605444761741360 -0.0267178900143271   T   T   T
  0.0000000000000000  0.6642225632967463  0.8719157841933752   T   T   T
  0.0000000000000000  0.0024441033699193  0.7947508824732908   T   T   T
  0.4999999999999999  0.8211584974935764  0.5889952361567484   T   T   T
  0.4999999999999999  0.2061221904925299  0.6933845566809932   T   T   T
  0.0000000000000000  0.4007841462035963  0.5836199346954608   T   T   T
  0.4999999999999999  0.1759887268657757  0.4071851072598844   T   T   T
 -0.0000000000000000  0.6414745388089889  0.4277724217562313   T   T   T
  0.4999999999999999  0.4906779398008903  0.2594815594067813   T   T   T
  0.4999999999999999  0.8333333333333331  0.3333333333333328   T   T   T
  0.0000000000000000  0.0251921278576777  0.2388942449104350   T   T   T
  0.4999999999999999  0.8455081691730909  0.0776714305099181   T   T   T
