Sr Co O 
 1.0000000000000000
    -3.7343502206762893    0.0000000000000000    0.0000000000000000
     0.0000000000000000    4.1005097337698340    7.8073840475900829
     0.0000000000000000    8.3331094693557759   -7.8757048538606007
 Sr  Co  O  
   6   6  13
Selective dynamics
Direct
 -0.0000000000000000 -0.0064712609163650  0.0074053373555914   T   T   T
 -0.0000000000000000  0.3352316945636902  0.8491065200483623   T   T   T
 -0.0000000000000000  0.6762383525687508  0.6535992072359779   T   T   T
 -0.0000000000000000 -0.0165460148243561  0.4714531478205742   T   T   T
 -0.0000000000000000  0.3559248765582564  0.3333502350045112   T   T   T
 -0.0000000000000000  0.6779898410936440  0.1781995671534185   T   T   T
  0.5000000000000001  0.3242398412907804  0.0839029287789092   T   T   T
  0.5000000000000001  0.6779996838436215  0.9297435378598040   T   T   T
  0.5000000000000001 -0.0057867879571083  0.7681468932605762   T   T   T
  0.5000000000000001  0.3360013759782919  0.5705653546691682   T   T   T
  0.5000000000000001  0.6653508504803702  0.4078629914276475   T   T   T
  0.5000000000000001  0.0078746576952717  0.2491331350235610   T   T   T
 -0.0000000000000000  0.3094747747480320  0.0787948326056231   T   T   T
  0.5000000000000001  0.1560536644040475  0.9099105950104003   T   T   T
 -0.0000000000000000  0.6121017078281270  0.9482057185422659   T   T   T
  0.5000000000000001  0.3995234164575469  0.7314398079847406   T   T   T
  0.5000000000000001  0.7988342928666186  0.8082342681310053   T   T   T
  0.5000000000000001  0.9231220075429215  0.6063414936173753   T   T   T
  0.5000000000000001  0.1806289782794992  0.4304308716915550   T   T   T
  0.5000000000000001  0.5201171413677100  0.5132059226668232   T   T   T
 -0.0000000000000000  0.6781791148154064  0.4245059984849355   T   T   T
  0.5000000000000001  0.4826595732981974  0.2344558916416021   T   T   T
  0.5000000000000001  0.8284236680444698  0.3245928648000013   T   T   T
 -0.0000000000000000  0.0608412396930759  0.2375999663838524   T   T   T
  0.5000000000000001  0.8553266628445565  0.0831461453000216   T   T   T
