Sr Co O 
 1.0000000000000000
    -3.6552551742828654    0.0000000000000000    0.0000000000000000
     0.0000000000000000    4.5134459165884113    7.4193863778049485
     0.0000000000000000    8.9690033673384146   -7.4405466550327022
 Sr  Co  O  
   6   6  13
Selective dynamics
Direct
 -0.0000000000000000  0.0133309757002560  0.0033379758142391   T   T   T
 -0.0000000000000000  0.3064611968337986  0.8088968469238641   T   T   T
 -0.0000000000000000  0.6471018651763709  0.6483995762413097   T   T   T
 -0.0000000000000000  0.0133353319247578  0.5033409912478347   T   T   T
 -0.0000000000000000  0.3795549983847198  0.3582708562841007   T   T   T
 -0.0000000000000000  0.7201780074612047  0.1977675230696671   T   T   T
  0.4999999999999997  0.3625704191314503  0.0818475624099188   T   T   T
  0.4999999999999997  0.6640957674409881  0.9248127448190148   T   T   T
  0.4999999999999997 -0.0320247331578279  0.7380025187285352   T   T   T
  0.4999999999999997  0.3231770541991732  0.5762262668919540   T   T   T
  0.4999999999999997  0.7034927661423100  0.4304399988907442   T   T   T
  0.4999999999999997  0.0586905715471173  0.2686644183191914   T   T   T
  0.4999999999999997  0.2131933633287512  0.9596643528607166   T   T   T
  0.4999999999999997  0.5320766783301830  0.7946892808077677   T   T   T
 -0.0000000000000000 -0.0674374456915775  0.7913583465752219   T   T   T
  0.4999999999999997  0.8377557160484308  0.5855646683381319   T   T   T
  0.4999999999999997  0.1673794712491820  0.6803297201887653   T   T   T
 -0.0000000000000000  0.3468373888973646  0.5988222048152527   T   T   T
  0.4999999999999997  0.1888946911573456  0.4211100666169906   T   T   T
  0.4999999999999997  0.5133230125527630  0.5033292859226393   T   T   T
 -0.0000000000000000  0.6798316252482475  0.4078551618606100   T   T   T
  0.4999999999999997  0.4946142198571293  0.2119645919040238   T   T   T
  0.4999999999999997  0.8592784587900743  0.3263222798793709   T   T   T
 -0.0000000000000000  0.0941511422493758  0.2153097276477448   T   T   T
  0.4999999999999997  0.8134708221944379  0.0470064075909004   T   T   T
