Sr Co O 
 1.0000000000000000
    -3.8223440749710562    0.0000000000000000    0.0000000000000000
     0.0000000000000000    4.1207070832551427    8.1188743024040857
     0.0000000000000000    7.9991068161014178   -7.9991523989522939
 Sr  Co  O  
   6   6  12
Selective dynamics
Direct
 -0.0000000000000000 -0.0220302419647241  0.0294618125131824   T   T   T
 -0.0000000000000000  0.3766302621980451  0.8309170303048585   T   T   T
 -0.0000000000000000  0.6075454386745784  0.6406817767472160   T   T   T
 -0.0000000000000000 -0.0076281795270124  0.4707375188009887   T   T   T
 -0.0000000000000000  0.3050797158191393  0.3335766822180478   T   T   T
 -0.0000000000000000  0.6920822535160003  0.1847826238591103   T   T   T
  0.4999999999999998  0.3220473716703346  0.0816798324436672   T   T   T
  0.4999999999999998  0.6747363451027069  0.9170600362469464   T   T   T
  0.4999999999999998  0.0451180454743298  0.7926792691466391   T   T   T
  0.4999999999999998  0.3213182041190740  0.5746616273433459   T   T   T
  0.4999999999999998  0.6508520201514341  0.4066770929851150   T   T   T
  0.4999999999999998 -0.0061594129493006  0.2503817733605911   T   T   T
  0.4999999999999998  0.1613745562336518  0.1501195817069700   T   T   T
  0.4999999999999998  0.2459662624136866  0.9074837342761174   T   T   T
 -0.0000000000000000  0.6667276341414012  0.9236741309474717   T   T   T
  0.4999999999999998  0.5251273204855659  0.7550537508312753   T   T   T
 -0.0000000000000000  0.2919107804732240  0.6064822016865589   T   T   T
  0.4999999999999998  0.1551929788201968  0.4146364237471486   T   T   T
  0.4999999999999998  0.4829959720426331  0.4814846677480935   T   T   T
 -0.0000000000000000  0.6936830193300425  0.4509891704979904   T   T   T
  0.4999999999999998  0.5047698331330743  0.2054747109373533   T   T   T
  0.4999999999999998  0.8289113585545335  0.3464325965494409   T   T   T
 -0.0000000000000000 -0.0037556985004918  0.2495752557919034   T   T   T
  0.4999999999999998  0.8208374567134330  0.0786299577984862   T   T   T
