Sr Co O 
 1.0000000000000000
    -3.6488103655251036    0.0000000000000000    0.0000000000000000
     0.0000000000000000    4.3486294025187240    7.7330777429019797
     0.0000000000000000    8.5317707712295405   -7.6296342170729856
 Sr  Co  O  
   6   6  13
Selective dynamics
Direct
 -0.0000000000000000 -0.0049387209321669  0.0040107629946673   T   T   T
 -0.0000000000000000  0.2974573589690244  0.8193099917405796   T   T   T
 -0.0000000000000000  0.6196094928030372  0.6621815744096655   T   T   T
 -0.0000000000000000  0.0122448683934480  0.4999946600173332   T   T   T
 -0.0000000000000000  0.3434094248593602  0.3515000909841507   T   T   T
 -0.0000000000000000  0.7003809532700825  0.1895881810821246   T   T   T
  0.4999999999999996  0.3866386130712811  0.0997060589095564   T   T   T
  0.4999999999999996  0.6774494621282076  0.9108320059843865   T   T   T
  0.4999999999999996 -0.0290605522696423  0.7354319374658042   T   T   T
  0.4999999999999996  0.3129936430158721  0.5750137188145652   T   T   T
  0.4999999999999996  0.6709572362412267  0.4296490740461980   T   T   T
  0.4999999999999996  0.0138726482377804  0.2645913543654437   T   T   T
 -0.0000000000000000  0.3707598474919631  0.0530869438687769   T   T   T
  0.4999999999999996  0.0864338558967034  0.8892844818906853   T   T   T
 -0.0000000000000000  0.7352798256615863  0.8769778595685520   T   T   T
  0.4999999999999996  0.4943948324084915  0.7989661530610040   T   T   T
  0.4999999999999996  0.8060815610104390  0.6039865994567636   T   T   T
  0.4999999999999996  0.1399257279794112  0.6579588461029232   T   T   T
 -0.0000000000000000  0.3312518242435810  0.5957972071113805   T   T   T
  0.4999999999999996  0.1744149435626479  0.4125490583269478   T   T   T
  0.4999999999999996  0.5026304017473694  0.5004887763436509   T   T   T
  0.4999999999999996  0.5142625482480822  0.2611228212128741   T   T   T
  0.4999999999999996  0.8352863138825292  0.3525370580970102   T   T   T
 -0.0000000000000000  0.0498605673787987  0.2210801825885826   T   T   T
  0.4999999999999996  0.7917365709999714  0.0676879650696059   T   T   T
