Sr Co O 
 1.0000000000000000
    -3.6666063191976228    0.0000000000000000    0.0000000000000000
     0.0000000000000000    3.9851868751963528    8.1493269183112940
     0.0000000000000000    7.9351890248259496   -8.1312783726706837
 Sr  Co  O  
   6   6  13
Selective dynamics
Direct
 -0.0000000000000000  0.0150446662286497  0.0147570128188646   T   T   T
 -0.0000000000000000  0.3344264326209255  0.8484636130373382   T   T   T
 -0.0000000000000000  0.6734466140074180  0.6411790468162845   T   T   T
 -0.0000000000000000 -0.0297356556035605  0.4896237711052454   T   T   T
 -0.0000000000000000  0.3554998599255633  0.3264056438694573   T   T   T
 -0.0000000000000000  0.6829710443246458  0.1717949952959536   T   T   T
  0.4999999999999992  0.3396852091737301  0.0795003254004421   T   T   T
  0.4999999999999992  0.6603509218847949  0.9202131616136869   T   T   T
  0.4999999999999992 -0.0046310485649557  0.7627849826223169   T   T   T
  0.4999999999999992  0.3222925607059386  0.5844322169917940   T   T   T
  0.4999999999999992  0.6711713169138164  0.4036796981314470   T   T   T
  0.4999999999999992  0.0107497536280987  0.2470961685472700   T   T   T
  0.4999999999999992  0.1937887097368849  0.1620178792648302   T   T   T
  0.4999999999999992  0.1774416338008683  0.9176814428293466   T   T   T
  0.4999999999999992  0.4876880219479501 -0.0049890099957664   T   T   T
 -0.0000000000000000  0.6262200686854329  0.8458800905747251   T   T   T
 -0.0000000000000000 -0.0319321297006334  0.7797952373903622   T   T   T
  0.4999999999999992  0.8534940788064915  0.5947984314411123   T   T   T
 -0.0000000000000000  0.2626888828473996  0.6152741232460461   T   T   T
  0.4999999999999992  0.4736059991776913  0.5086902924277529   T   T   T
 -0.0000000000000000  0.6619119712215016  0.4134391074740977   T   T   T
  0.4999999999999992  0.5013567700976371  0.2312885469167567   T   T   T
  0.4999999999999992  0.8458274200460936  0.3293146060020129   T   T   T
 -0.0000000000000000  0.0672009994391128  0.2983811526750181   T   T   T
  0.4999999999999992  0.8494357967125126  0.0684976315128206   T   T   T
