Sr Co O 
 1.0000000000000000
    -3.6067712657140740    0.0000000000000000    0.0000000000000000
     0.0000000000000000    3.9012841270870093    8.4211601009031138
     0.0000000000000000    7.8030657105472505   -8.4179235598861126
 Sr  Co  O  
   6   6  13
Selective dynamics
Direct
 -0.0000000000000000 -0.0036778162424451  0.0199510588404236   T   T   T
 -0.0000000000000000  0.3159805255564799  0.8177952163083233   T   T   T
 -0.0000000000000000  0.6626114861329051  0.6731366327045611   T   T   T
 -0.0000000000000000 -0.0170413582679352  0.5027357376822305   T   T   T
 -0.0000000000000000  0.3432794048295547  0.3139876352235045   T   T   T
 -0.0000000000000000  0.6723128533836439  0.1714828881330422   T   T   T
  0.5000000000000000  0.3423055598694449  0.0691950694574458   T   T   T
  0.5000000000000000  0.6620082841996240  0.9221765359056781   T   T   T
  0.5000000000000000 -0.0128915186173625  0.7783658250229097   T   T   T
  0.5000000000000000  0.3455871138944220  0.5869840737192764   T   T   T
  0.5000000000000000  0.6569312167850289  0.4067311120495343   T   T   T
  0.5000000000000000 -0.0102413839268651  0.2610952639543453   T   T   T
  0.5000000000000000  0.1927807556796751  0.1398072147887100   T   T   T
  0.5000000000000000  0.1939594770196783  0.9084734603882678   T   T   T
  0.5000000000000000  0.5035641086883956 -0.0037125621459039   T   T   T
  0.5000000000000000  0.5041548729941547  0.7570704956366803   T   T   T
  0.5000000000000000  0.8149439146937411  0.8444122402899816   T   T   T
 -0.0000000000000000 -0.0416700065615868  0.7168684887186360   T   T   T
  0.5000000000000000  0.1734364422778088  0.6226914741227648   T   T   T
  0.5000000000000000  0.4531773781170056  0.4855564088124889   T   T   T
 -0.0000000000000000  0.6868427539200997  0.4621984675968618   T   T   T
  0.5000000000000000  0.4972812747009822  0.2292015015281254   T   T   T
  0.5000000000000000  0.8355658793348957  0.3450866015059758   T   T   T
 -0.0000000000000000  0.0686934746485768  0.3025954506598499   T   T   T
  0.5000000000000000  0.8267720215217278  0.0827804141837843   T   T   T
