Sr Co O 
 1.0000000000000000
    -3.6461755177790716    0.0000000000000000    0.0000000000000000
     0.0000000000000000    4.2427541310927106    8.0101917170206711
     0.0000000000000000    8.5525172261737019   -8.0562447278384219
 Sr  Co  O  
   6   6  12
Selective dynamics
Direct
 -0.0000000000000000 -0.0051506283768239 -0.0057634258608790   T   T   T
 -0.0000000000000000  0.3275055655855021  0.8253237691663461   T   T   T
 -0.0000000000000000  0.6371232976303667  0.6259085893853947   T   T   T
 -0.0000000000000000  0.0025435892743661  0.4604542057664230   T   T   T
 -0.0000000000000000  0.4031992449745047  0.3367480368817266   T   T   T
 -0.0000000000000000  0.6894144084639851  0.1485635614449711   T   T   T
  0.5000000000000001  0.3572378026463451  0.0886874686643039   T   T   T
  0.5000000000000001  0.6753952126618322  0.8614551718018838   T   T   T
  0.5000000000000001  0.0002921725117972  0.7386736237762245   T   T   T
  0.5000000000000001  0.3224424234561008  0.5938493416685456   T   T   T
  0.5000000000000001  0.7071156376514806  0.3811461630740690   T   T   T
  0.5000000000000001  0.0671990732421633  0.2452247647138756   T   T   T
  0.5000000000000001  0.1470236181611533  0.1025156791790104   T   T   T
 -0.0000000000000000  0.4089311330601564  0.0334445934233155   T   T   T
  0.5000000000000001  0.4692091048747655  0.7609885738261269   T   T   T
  0.5000000000000001  0.7847372792269123  0.7419294592630498   T   T   T
 -0.0000000000000000  0.0599028973961656  0.8057796687701626   T   T   T
  0.5000000000000001  0.1253638554208659  0.6101238903853349   T   T   T
  0.5000000000000001  0.4516603957409025  0.4992583665745490   T   T   T
 -0.0000000000000000  0.7228986213839832  0.4496489389956309   T   T   T
  0.5000000000000001  0.5276724096325192  0.2400949570889173   T   T   T
  0.5000000000000001  0.8741568434710648  0.3004345181109332   T   T   T
 -0.0000000000000000  0.1317283907388001  0.3053672218503636   T   T   T
  0.5000000000000001  0.7790642524113692  0.0168094767528226   T   T   T
