Sr Co O 
 1.0000000000000000
    -3.6956226299258534    0.0000000000000000    0.0000000000000000
     0.0000000000000000    4.1413206880279381    7.7554205253052038
     0.0000000000000000    8.5148186567595108   -7.8771888862472501
 Sr  Co  O  
   6   6  12
Selective dynamics
Direct
 -0.0000000000000000 -0.0556726421662234 -0.0112213500944116   T   T   T
 -0.0000000000000000  0.3123021207656375  0.8109592268714223   T   T   T
 -0.0000000000000000  0.6837582474069128  0.6653757358732660   T   T   T
 -0.0000000000000000  0.0080074392214822  0.4668110292684315   T   T   T
 -0.0000000000000000  0.3466187541758891  0.3205544601847656   T   T   T
 -0.0000000000000000  0.6820833906529994  0.1916824061619556   T   T   T
  0.5000000000000001  0.3112690327268964  0.0477707872594009   T   T   T
  0.5000000000000001  0.6553456748882566  0.9153243108517530   T   T   T
  0.5000000000000001  0.0001621812933461  0.7546086857086728   T   T   T
  0.5000000000000001  0.3340891645855785  0.5551994425734064   T   T   T
  0.5000000000000001  0.6935935811198920  0.4379129217806498   T   T   T
  0.5000000000000001  0.0107084970384757  0.2380821312891293   T   T   T
 -0.0000000000000000  0.5866567488415371  0.8728741500548377   T   T   T
  0.5000000000000001  0.8335480758248941  0.8289843335886825   T   T   T
  0.5000000000000001  0.9169229484952509  0.5968573503528674   T   T   T
  0.5000000000000001  0.1799043863633019  0.8953181991900532   T   T   T
 -0.0000000000000000  0.2879181159773048  0.6077617643394845   T   T   T
  0.5000000000000001  0.1925452478737136  0.3943983497682606   T   T   T
  0.5000000000000001  0.5511890960386437  0.5490264053304951   T   T   T
 -0.0000000000000000  0.6553668676685684  0.4067028397754414   T   T   T
  0.5000000000000001  0.4448227279504474  0.1878792017175624   T   T   T
  0.5000000000000001  0.8411423620222693  0.3291866879064697   T   T   T
 -0.0000000000000000  0.0639853855303177  0.1980815132504733   T   T   T
  0.5000000000000001  0.7970657428352619  0.0732027802831084   T   T   T
