Sr Co O 
 1.0000000000000000
    -3.5622069646840235    0.0000000000000000    0.0000000000000000
     0.0000000000000000    3.8958050237459356    9.0543929960182084
     0.0000000000000000    7.5294698214234899   -8.9286609792941452
 Sr  Co  O  
   6   6  12
Selective dynamics
Direct
 -0.0000000000000000 -0.0176299895547338  0.0482243724779048   T   T   T
 -0.0000000000000000  0.3472518140319301  0.8717642996899528   T   T   T
 -0.0000000000000000  0.6555413628035884  0.6714994935688753   T   T   T
 -0.0000000000000000 -0.0364832271712790  0.5135449644773700   T   T   T
 -0.0000000000000000  0.3280844797289472  0.3543897586258216   T   T   T
 -0.0000000000000000  0.6740426068427967  0.1787602633372557   T   T   T
  0.5000000000000001  0.3032194475832668  0.0762955047630798   T   T   T
  0.5000000000000001  0.6755450328898019  0.9208225818692449   T   T   T
  0.5000000000000001 -0.0261683999931855  0.7816110713931436   T   T   T
  0.5000000000000001  0.3100302958612921  0.6050258687362651   T   T   T
  0.5000000000000001  0.6668600716876699  0.4206527766301038   T   T   T
  0.5000000000000001 -0.0168880763932191  0.2854664145834593   T   T   T
  0.5000000000000001  0.2023472171779148  0.1740185301201467   T   T   T
  0.5000000000000001  0.1772907570694467  0.8856596480185205   T   T   T
 -0.0000000000000000  0.5910415409737581  0.8615128302434297   T   T   T
  0.5000000000000001  0.8384662062885141  0.8549248182615063   T   T   T
 -0.0000000000000000  0.2447531043717893  0.6347962515570517   T   T   T
  0.5000000000000001  0.8411476031624582  0.6071764417324895   T   T   T
  0.5000000000000001  0.4538306407646148  0.5397534444742461   T   T   T
 -0.0000000000000000  0.5872443314608496  0.3722538163274138   T   T   T
  0.5000000000000001  0.4788113801171442  0.0563564978689691   T   T   T
  0.5000000000000001  0.8265573073922988  0.3541907472145730   T   T   T
 -0.0000000000000000  0.0650017569755292  0.3296009406869133   T   T   T
  0.5000000000000001  0.8301027574263933  0.1016985594284866   T   T   T
