Sr Co O 
 1.0000000000000000
    -3.7243537504297919    0.0000000000000000    0.0000000000000000
     0.0000000000000000    3.9086784790476039    8.1812154861661455
     0.0000000000000000    8.2021927711016929   -8.3755398424861074
 Sr  Co  O  
   6   6  12
Selective dynamics
Direct
 -0.0000000000000000 -0.0408860101104066  0.0224735139526199   T   T   T
 -0.0000000000000000  0.3067444925902441  0.7946347003087829   T   T   T
 -0.0000000000000000  0.6741184633238678  0.6878815138903259   T   T   T
 -0.0000000000000000  0.0413872506153849  0.4896324848084716   T   T   T
 -0.0000000000000000  0.2901251410876654  0.3030180920873434   T   T   T
 -0.0000000000000000  0.6910063515208168  0.1930359816288041   T   T   T
  0.4999999999999993  0.3189513590307145  0.0818324308198082   T   T   T
  0.4999999999999993  0.6596542726008514  0.9213956641445876   T   T   T
  0.4999999999999993  0.0255873650480043  0.7896007078849961   T   T   T
  0.4999999999999993  0.3722129691725707  0.5531758687820671   T   T   T
  0.4999999999999993  0.6475256503710001  0.4046964396359316   T   T   T
  0.4999999999999993 -0.0090080454450808  0.2518522852444116   T   T   T
  0.4999999999999993  0.1469108920974204  0.1378421424744460   T   T   T
  0.4999999999999993  0.2464848959265648  0.9146946199594719   T   T   T
 -0.0000000000000000  0.5978977117037925  0.8786215863190878   T   T   T
  0.4999999999999993  0.8515071434819097  0.8363406372140675   T   T   T
  0.4999999999999993  0.0996046598894048  0.6631291482859462   T   T   T
 -0.0000000000000000  0.3713946612573519  0.6087624023305603   T   T   T
  0.4999999999999993  0.1914869093081623  0.4059548534752276   T   T   T
  0.4999999999999993  0.5897200284927209  0.5390182538895267   T   T   T
  0.4999999999999993  0.4895923657334920  0.2318452092025136   T   T   T
  0.4999999999999993  0.8276174369045628  0.3676418838187666   T   T   T
 -0.0000000000000000 -0.0109684829576614  0.2502878253563243   T   T   T
  0.4999999999999993  0.7879992287389461  0.0892984147073629   T   T   T
