Sr Co O 
 1.0000000000000000
    -3.6317503844713599    0.0000000000000000    0.0000000000000000
     0.0000000000000000    3.8986716009437576    8.2625645325157411
     0.0000000000000000    8.4576301993339680   -8.5601145133822687
 Sr  Co  O  
   6   6  12
Selective dynamics
Direct
 -0.0000000000000000 -0.0160622002425456 -0.0009804792268506   T   T   T
 -0.0000000000000000  0.2978207931024420  0.8624472541390169   T   T   T
 -0.0000000000000000  0.6783340401378265  0.6371113824424188   T   T   T
 -0.0000000000000000 -0.0230214374342971  0.4643281719162659   T   T   T
 -0.0000000000000000  0.3403096297438536  0.3887528041390922   T   T   T
 -0.0000000000000000  0.7036744067801599  0.1522551736960987   T   T   T
  0.5000000000000009  0.3778956181252628  0.1220455186721859   T   T   T
  0.5000000000000009  0.6585144843434203  0.8814759678415174   T   T   T
  0.5000000000000009  0.0061587632323186  0.7461321062896582   T   T   T
  0.5000000000000009  0.3465738130519996  0.6288073824274953   T   T   T
  0.5000000000000009  0.6465330395324497  0.3740672966891370   T   T   T
  0.5000000000000009 -0.0056521439189019  0.2317901368393138   T   T   T
 -0.0000000000000000  0.4152424515551989  0.0726253969601662   T   T   T
  0.5000000000000009  0.1148175031697930  0.9118243681543772   T   T   T
 -0.0000000000000000  0.7238607715794360  0.8484049963038561   T   T   T
  0.5000000000000009  0.4248370648791557  0.7956440592532426   T   T   T
 -0.0000000000000000 -0.0131472672887903  0.6872106203336684   T   T   T
  0.5000000000000009  0.1713765239840061  0.4928522614931064   T   T   T
  0.5000000000000009  0.5024998821298301  0.5579995068187659   T   T   T
 -0.0000000000000000  0.6899263221712467  0.4363951791209382   T   T   T
  0.5000000000000009  0.4202734534306411  0.2844922742880255   T   T   T
  0.5000000000000009  0.8241487444247292  0.3039528913716529   T   T   T
 -0.0000000000000000  0.0673338606226496  0.2313656765022301   T   T   T
  0.5000000000000009  0.8144185050606706  0.0556667069481041   T   T   T
