Sr Co O 
 1.0000000000000000
    -3.6964583470163066    0.0000000000000000    0.0000000000000000
     0.0000000000000000    4.0190706137571217    8.0573560601477947
     0.0000000000000000    8.2757195255522742   -8.1758202878480652
 Sr  Co  O  
   6   6  12
Selective dynamics
Direct
 -0.0000000000000000  0.0008171885881434 -0.0101353030837460   T   T   T
 -0.0000000000000000  0.3136819770561216  0.7975352824322657   T   T   T
 -0.0000000000000000  0.6743138592138712  0.6778352411175463   T   T   T
 -0.0000000000000000 -0.0202102055990808  0.5206477803607996   T   T   T
 -0.0000000000000000  0.3496011103068577  0.3243739863429242   T   T   T
 -0.0000000000000000  0.6750989448232468  0.2075256583269522   T   T   T
  0.4999999999999995  0.3496339674014851  0.0683165283518321   T   T   T
  0.4999999999999995  0.6712598336996557  0.9241138434883902   T   T   T
  0.4999999999999995 -0.0089060518935922  0.7506326333860535   T   T   T
  0.4999999999999995  0.3411148395765974  0.5884933644557894   T   T   T
  0.4999999999999995  0.6850340014570759  0.4319136487165384   T   T   T
  0.4999999999999995 -0.0277322610961493  0.2310782685663318   T   T   T
 -0.0000000000000000  0.3132206506478027  0.0182555778471716   T   T   T
  0.4999999999999995  0.5053644990687872  0.7807950413510625   T   T   T
  0.4999999999999995  0.8511386922982870  0.8711103310428581   T   T   T
 -0.0000000000000000  0.0376629314133188  0.7848013111493300   T   T   T
  0.4999999999999995  0.8053540130278476  0.6044686268208846   T   T   T
  0.4999999999999995  0.1612264177517994  0.6455428157661237   T   T   T
 -0.0000000000000000  0.3745877807937139  0.5453453830018243   T   T   T
 -0.0000000000000000  0.6384385439080233  0.4225106157607570   T   T   T
  0.4999999999999995  0.4590360794902129  0.2343983660288711   T   T   T
  0.4999999999999995  0.8677217758999632  0.3558791269845631   T   T   T
 -0.0000000000000000  0.0607363153983056  0.2180426558013291   T   T   T
  0.4999999999999995  0.7551384139919376  0.0898524999033501   T   T   T
