Sr Co O 
 1.0000000000000000
    -3.7589889504877152    0.0000000000000000    0.0000000000000000
     0.0000000000000000    4.0339444579085404    8.1353068971458047
     0.0000000000000000    8.5818091062812325   -8.3991450077966228
 Sr  Co  O  
   6   6  12
Selective dynamics
Direct
 -0.0000000000000000 -0.0422215316701070  0.0284921518642563   T   T   T
  0.0000000000000000  0.3755548650034379  0.8048411814690771   T   T   T
 -0.0000000000000000  0.6348521200628956  0.6314043706497287   T   T   T
 -0.0000000000000000 -0.0322839587642957  0.5021499809038623   T   T   T
  0.0000000000000000  0.3656172920976271  0.3311833524294723   T   T   T
  0.0000000000000000  0.6984812132704344  0.2019289626836065   T   T   T
  0.5000000000000007  0.3817269066396657  0.0687863558698006   T   T   T
  0.5000000000000007  0.6666666666666653  0.9166666666666690   T   T   T
  0.5000000000000007 -0.0483935733063347  0.7645469774635341   T   T   T
  0.5000000000000007  0.3377365227918734  0.5770758718315129   T   T   T
  0.5000000000000007  0.6666666666666646  0.4166666666666677   T   T   T
  0.5000000000000007 -0.0044031894585404  0.2562574615018222   T   T   T
  0.5000000000000007  0.3444586341023675 -0.0804629664244270   T   T   T
 -0.0000000000000000  0.6666666666666653  0.9166666666666690   T   T   T
  0.5000000000000007  0.5235863667408671  0.7278603117113482   T   T   T
  0.5000000000000007  0.9888746992309617  0.9137962997577630   T   T   T
  0.5000000000000007  0.8590452655435008  0.6109954843830252   T   T   T
  0.0000000000000000  0.2556483305652181  0.5802450626385510   T   T   T
  0.5000000000000007  0.4675607857701130  0.4733833511370090   T   T   T
 -0.0000000000000000  0.6666666666666646  0.4166666666666677   T   T   T
  0.5000000000000007  0.4742880677898288  0.2223378489503110   T   T   T
  0.5000000000000007  0.8657725475632180  0.3599499821963276   T   T   T
 -0.0000000000000000  0.0776850027681135  0.2530882706947837   T   T   T
  0.5000000000000007  0.8097469665924606  0.1054730216219853   T   T   T
