Sr Co O 
 1.0000000000000000
    -3.5624361972976493    0.0000000000000000    0.0000000000000000
     0.0000000000000000    4.4868397668289202    7.3519319191445529
     0.0000000000000000    9.2150741216722949   -7.4118443435653552
 Sr  Co  O  
   6   6  12
Selective dynamics
Direct
 -0.0000000000000000  0.0149077365253042 -0.0019906541772077   T   T   T
 -0.0000000000000000  0.3203962672466736  0.8265266627317387   T   T   T
 -0.0000000000000000  0.6245224637103423  0.6468930254980577   T   T   T
 -0.0000000000000000 -0.0251180622680564  0.4944764558904996   T   T   T
 -0.0000000000000000  0.3247501010952389  0.3409775245294675   T   T   T
 -0.0000000000000000  0.6985486994584367  0.1668431737215355   T   T   T
  0.5000000000000003  0.3823235801522948  0.0913525344585630   T   T   T
  0.5000000000000003  0.7002128273070350  0.8884493350258096   T   T   T
  0.5000000000000003 -0.0605499149999379  0.7612271465287349   T   T   T
  0.5000000000000003  0.2922374926925644  0.5671270041962591   T   T   T
  0.5000000000000003  0.6368911922119143  0.3938887872958312   T   T   T
  0.5000000000000003  0.0181794214767785  0.2614277812410510   T   T   T
 -0.0000000000000000  0.3798337178382404  0.0418644571971565   T   T   T
 -0.0000000000000000  0.8184152416917544  0.8234029314464497   T   T   T
  0.5000000000000003  0.5163637183705266  0.7815002744205969   T   T   T
  0.5000000000000003  0.8472666433797563  0.6064152824786897   T   T   T
  0.5000000000000003  0.1203758493884416  0.8734596700032797   T   T   T
 -0.0000000000000000  0.2448343501623822  0.6184430749298505   T   T   T
  0.5000000000000003  0.1524889883441732  0.4144085798510678   T   T   T
  0.5000000000000003  0.4964159968658666  0.4970144103969278   T   T   T
  0.5000000000000003  0.4873844402647592  0.2465844982467864   T   T   T
  0.5000000000000003  0.8149677684485614  0.3264040169123740   T   T   T
 -0.0000000000000000  0.0647266533723230  0.2070957309615766   T   T   T
  0.5000000000000003  0.7962916448679112  0.0428749376346746   T   T   T
