Sr Co O 
 1.0000000000000000
    -3.5863458072572469    0.0000000000000000    0.0000000000000000
     0.0000000000000000    4.3434710792026472    8.1312462111903514
     0.0000000000000000    8.4654404103901477   -8.0120476151749234
 Sr  Co  O  
   6   6  12
Selective dynamics
Direct
 -0.0000000000000000  0.0076712017622359  0.0251855455551721   T   T   T
 -0.0000000000000000  0.3909188963102992  0.8501914468321988   T   T   T
 -0.0000000000000000  0.6715401191159756  0.6717211595001611   T   T   T
 -0.0000000000000000 -0.0627301520362356  0.4919091980977158   T   T   T
 -0.0000000000000000  0.3144585564330065  0.2885594285556505   T   T   T
 -0.0000000000000000  0.6708507521141387  0.1732758904722256   T   T   T
  0.4999999999999997  0.3410315152191172  0.0634941183963175   T   T   T
  0.4999999999999997  0.7006599753794135  0.9441604855600564   T   T   T
  0.4999999999999997  0.0485517886932756  0.7452000897050840   T   T   T
  0.4999999999999997  0.3110224725394645  0.6143310980513210   T   T   T
  0.4999999999999997  0.6149001896180836  0.3945221448516861   T   T   T
  0.4999999999999997 -0.0189948801373092  0.2675923635623052   T   T   T
  0.4999999999999997  0.1827296424091826  0.1338997572168476   T   T   T
  0.4999999999999997  0.1931254936875606  0.8898841640517250   T   T   T
  0.4999999999999997  0.5069126630718571 -0.0043717989639869   T   T   T
 -0.0000000000000000  0.7353928968513818  0.8918975024868727   T   T   T
  0.4999999999999997  0.4916158999322834  0.7124243873449665   T   T   T
  0.4999999999999997  0.8529096468680647  0.6545943633989690   T   T   T
  0.4999999999999997  0.1159994275472737  0.5931576169827208   T   T   T
 -0.0000000000000000  0.5720625957082575  0.4478219969271108   T   T   T
  0.4999999999999997  0.4786116648729604  0.2215431804729548   T   T   T
  0.4999999999999997  0.8027915142101777  0.3441474770825881   T   T   T
 -0.0000000000000000  0.0604632793344635  0.3167105016360089   T   T   T
  0.4999999999999997  0.8508381364333023  0.1014811991746550   T   T   T
