Sr Co O 
 1.0000000000000000
    -3.6255922030234751    0.0000000000000000    0.0000000000000000
     0.0000000000000000    4.1812229265778571    8.1034879368914794
     0.0000000000000000    8.4596004949258656   -8.1581650357525000
 Sr  Co  O  
   6   6  12
Selective dynamics
Direct
 -0.0000000000000000  0.0116242504517956  0.0288141047584071   T   T   T
 -0.0000000000000000  0.3466735897599802  0.8195341437886818   T   T   T
 -0.0000000000000000  0.6686782333241735  0.6538732623059963   T   T   T
 -0.0000000000000000 -0.0601772681489430  0.4852919822708886   T   T   T
 -0.0000000000000000  0.3255337202885171  0.3010053808811755   T   T   T
 -0.0000000000000000  0.6869907035857622  0.1789577799433158   T   T   T
  0.5000000000000006  0.3257360099147786  0.0767687985497681   T   T   T
  0.5000000000000006  0.7167229768364445  0.9163682481307323   T   T   T
  0.5000000000000006  0.0004232042847814  0.7469760113375332   T   T   T
  0.5000000000000006  0.3051801913463394  0.5870728484538175   T   T   T
  0.5000000000000006  0.6347890547851940  0.3905758151695966   T   T   T
  0.5000000000000006  0.0021132235829174  0.2608740815472957   T   T   T
  0.5000000000000006  0.1694914330797554  0.1686398009718483   T   T   T
 -0.0000000000000000  0.2943535390310646  0.0055801074852932   T   T   T
 -0.0000000000000000  0.6231399541958281  0.8613815780504288   T   T   T
  0.5000000000000006  0.9192598026746519  0.8720431232226601   T   T   T
  0.5000000000000006  0.8306202631207300  0.6087934864611517   T   T   T
  0.5000000000000006  0.1879191796587451  0.7083245834538270   T   T   T
 -0.0000000000000000  0.3636011480428996  0.5833961410593640   T   T   T
 -0.0000000000000000  0.6022365463394334  0.4360454719073353   T   T   T
  0.5000000000000006  0.5007980008102976  0.2190159881962074   T   T   T
  0.5000000000000006  0.8267257561512814  0.3433906286814801   T   T   T
 -0.0000000000000000  0.0644725644053586  0.3243059964737069   T   T   T
  0.5000000000000006  0.8197605678380300  0.0896372177971638   T   T   T
