Sr Co O 
 1.0000000000000000
    -3.7053893438473700    0.0000000000000000    0.0000000000000000
     0.0000000000000000    3.9038838146091304    8.0648586771913617
     0.0000000000000000    8.0181155401666508   -8.1666511381820612
 Sr  Co  O  
   6   6  12
Selective dynamics
Direct
 -0.0000000000000000  0.0308968841209763  0.0408089100670332   T   T   T
 -0.0000000000000000  0.2777129704720511  0.8222240398621480   T   T   T
 -0.0000000000000000  0.6220345744597678  0.6370251660598526   T   T   T
 -0.0000000000000000 -0.0018839121167014  0.4973391462830266   T   T   T
 -0.0000000000000000  0.3703424136267915  0.3176150492566328   T   T   T
 -0.0000000000000000  0.7148030586168805  0.1859259356035254   T   T   T
  0.4999999999999994  0.3491775001932148  0.0686880375686653   T   T   T
  0.4999999999999994  0.6678168783990532  0.9242626770711119   T   T   T
  0.4999999999999994 -0.0395708481323705  0.7746256625056616   T   T   T
  0.4999999999999994  0.3254997539289303  0.5779665011471132   T   T   T
  0.4999999999999994  0.6748396596557786  0.4009233174614897   T   T   T
  0.4999999999999994  0.0327704292317184  0.2625174420670434   T   T   T
  0.4999999999999994  0.2147469454651420  0.1681697871342013   T   T   T
  0.4999999999999994  0.1466303904430324  0.9249547277275098   T   T   T
  0.4999999999999994  0.4674614650693198 -0.0582594751590434   T   T   T
  0.4999999999999994  0.7562080954562934  0.7888332944095491   T   T   T
  0.4999999999999994  0.0695672701096477  0.6647618641777485   T   T   T
 -0.0000000000000000  0.3268488396832037  0.6245071185241994   T   T   T
  0.4999999999999994  0.4642284526557588  0.4855800595355322   T   T   T
 -0.0000000000000000  0.7049641670122249  0.4584758066957569   T   T   T
  0.4999999999999994  0.5298683778464621  0.2134893421624234   T   T   T
  0.4999999999999994  0.8671510878273492  0.3447488443091826   T   T   T
 -0.0000000000000000  0.0844062093359847  0.3002293608692049   T   T   T
  0.4999999999999994  0.8434791549387333  0.0745873634400345   T   T   T
