Sr Co O 
 1.0000000000000000
     3.9485585201782039    0.0000000000000000    0.0000000000000000
     0.0000000000000000    3.7391150621467655    0.0000000000000000
     0.0000000000000000    0.0000000000000000   20.9665997572441434
 Sr  Co  O  
   5   5  10
Selective dynamics
Direct
  0.0000000000000000  0.0000000000000000 -0.0206990776442614   T   T   T
  0.0000000000000000  0.0000000000000000  0.1939157006272770   T   T   T
  0.0000000000000000  0.0000000000000000  0.4244956083658583   T   T   T
  0.0000000000000000  0.0000000000000000  0.6118274649749639   T   T   T
  0.0000000000000000  0.0000000000000000  0.7900134436136199   T   T   T
  0.4999999999999992  0.5000000000000006  0.0970714282746392   T   T   T
  0.4999999999999992  0.5000000000000006  0.2979367178516201   T   T   T
  0.4999999999999992  0.5000000000000006  0.5183719370982168   T   T   T
  0.4999999999999992  0.5000000000000006  0.7024718662097670   T   T   T
  0.4999999999999992  0.5000000000000006  0.8889175122964275   T   T   T
  0.4999999999999992  0.0000000000000000  0.2588198153260101   T   T   T
  0.4999999999999992  0.5000000000000006  0.3827595365790747   T   T   T
  0.0000000000000000  0.5000000000000006  0.5062649034334891   T   T   T
  0.4999999999999992  0.0000000000000000  0.5016680954775528   T   T   T
  0.4999999999999992  0.5000000000000006  0.6101579047045459   T   T   T
  0.0000000000000000  0.5000000000000006  0.7043624575908711   T   T   T
  0.4999999999999992  0.0000000000000000  0.7060982945468708   T   T   T
  0.4999999999999992  0.5000000000000006  0.8002940841616200   T   T   T
  0.0000000000000000  0.5000000000000006  0.9062787364219070   T   T   T
  0.4999999999999992  0.0000000000000000  0.9189736672032142   T   T   T
