Sr Co O 
 1.0000000000000000
    -3.5730152091005092    0.0000000000000000    0.0000000000000000
     0.0000000000000000    4.4782859772539760    7.6010207407199744
     0.0000000000000000    9.1240116713467536   -7.6754178348968365
 Sr  Co  O  
   6   6  12
Selective dynamics
Direct
 -0.0000000000000000 -0.0038646275201282  0.0033875685035665   T   T   T
 -0.0000000000000000  0.3520586595783800  0.8053365586348055   T   T   T
 -0.0000000000000000  0.6711275216357213  0.6627034784146343   T   T   T
 -0.0000000000000000 -0.0054313006709013  0.4894390408159519   T   T   T
 -0.0000000000000000  0.3465295251700826  0.3189048585703544   T   T   T
 -0.0000000000000000  0.6964674072807813  0.1976334387551281   T   T   T
  0.4999999999999998  0.3496125325060741  0.0651453894905551   T   T   T
  0.4999999999999998  0.7035054573968353  0.9151377119189738   T   T   T
  0.4999999999999998 -0.0020507474987090  0.7278752241567122   T   T   T
  0.4999999999999998  0.3328236251985939  0.5553157255873988   T   T   T
  0.4999999999999998  0.6875784684047540  0.4339668582189351   T   T   T
  0.4999999999999998  0.0297394726881584  0.2631901687001001   T   T   T
 -0.0000000000000000  0.2919294497387052  1.0019196495377707   T   T   T
  0.4999999999999998  0.5424833806055021  0.7953965903425682   T   T   T
  0.4999999999999998  0.9037444268917083  0.8646463841569557   T   T   T
 -0.0000000000000000  0.0881457051425839  0.7075202785582138   T   T   T
  0.4999999999999998  0.8291159704060729  0.5891818786492214   T   T   T
 -0.0000000000000000  0.3851705915059054  0.5978999127588933   T   T   T
  0.4999999999999998  0.1870936732547300  0.4190267999908968   T   T   T
 -0.0000000000000000  0.6089024719330074  0.4321868623779246   T   T   T
  0.4999999999999998  0.4686210862194430  0.2095994036868622   T   T   T
  0.4999999999999998  0.8458876538591965  0.3347185922534598   T   T   T
 -0.0000000000000000  0.0734138584044883  0.2100508945734118   T   T   T
  0.4999999999999998  0.7840624516776629  0.0664834448901350   T   T   T
