Sr Co O 
 1.0000000000000000
    -3.5671414602495566    0.0000000000000000    0.0000000000000000
     0.0000000000000000    4.5681793438093541    7.4388564895102469
     0.0000000000000000    9.1178370448409929   -7.4364583636786366
 Sr  Co  O  
   6   6  12
Selective dynamics
Direct
 -0.0000000000000000 -0.0029814449071832 -0.0331541197568093   T   T   T
 -0.0000000000000000  0.3436853617978247  0.8488128632619837   T   T   T
 -0.0000000000000000  0.6291108017143512  0.6488787209806905   T   T   T
 -0.0000000000000000 -0.0727949385857645  0.4791635005299993   T   T   T
 -0.0000000000000000  0.3262972008035666  0.3197997258327828   T   T   T
 -0.0000000000000000  0.6458407940381894  0.1310400510436558   T   T   T
  0.4999999999999996  0.3304341694238687  0.0905531130449163   T   T   T
  0.4999999999999996  0.6779332575047639  0.9123929334366844   T   T   T
  0.4999999999999996  0.0001913250350941  0.7193131388499135   T   T   T
  0.4999999999999996  0.2761526863709803  0.5751881899966682   T   T   T
  0.4999999999999996  0.6375263428472767  0.3732542166572817   T   T   T
  0.4999999999999996 -0.0273058536862528  0.2110903177434765   T   T   T
  0.4999999999999996  0.1804711013935591  0.2023413901770193   T   T   T
  0.4999999999999996  0.1894479031215092  0.9581606800765662   T   T   T
  0.4999999999999996  0.4943763099021902 -0.0058558716046562   T   T   T
 -0.0000000000000000  0.7155664218708133  0.8597244665751201   T   T   T
  0.4999999999999996  0.4313266100000212  0.7021525028928507   T   T   T
 -0.0000000000000000  0.0631371204255476  0.7574754749058686   T   T   T
  0.4999999999999996  0.8271109993723476  0.6027569208644095   T   T   T
 -0.0000000000000000  0.5990278340720534  0.4323393797291886   T   T   T
  0.4999999999999996  0.4891236597803444  0.2256168107310636   T   T   T
  0.4999999999999996  0.8551825019318331  0.3312358935137831   T   T   T
 -0.0000000000000000  0.2185915531843733  0.5068469381681329   T   T   T
  0.4999999999999996  0.8392150211272659  0.0675394632689637   T   T   T
