Sr Co O 
 1.0000000000000000
    -3.7347656814233474    0.0000000000000000    0.0000000000000000
     0.0000000000000000    4.1661715820333729    7.7095082115075204
     0.0000000000000000    8.3515278034853591   -7.7178238818062832
 Sr  Co  O  
   6   6  12
Selective dynamics
Direct
 -0.0000000000000000  0.0066107867870826  0.0049115491783613   T   T   T
 -0.0000000000000000  0.2810182202850978  0.8105548217452322   T   T   T
 -0.0000000000000000  0.6374592864306080  0.6413551926043418   T   T   T
 -0.0000000000000000 -0.0148955517580490  0.5158421472729984   T   T   T
 -0.0000000000000000  0.3779682398699843  0.3479672388299406   T   T   T
 -0.0000000000000000  0.7177539711759635  0.2005976590218594   T   T   T
  0.5000000000000001  0.3646953136695940  0.0813203122713805   T   T   T
  0.5000000000000001  0.6488319983008902  0.9293288680743507   T   T   T
  0.5000000000000001 -0.0290344416384522  0.7448314359586605   T   T   T
  0.5000000000000001  0.3111457714284518  0.5756547661950238   T   T   T
  0.5000000000000001  0.6842383525104742  0.4237630214334369   T   T   T
  0.5000000000000001  0.0228551809692804  0.2452241984709262   T   T   T
  0.5000000000000001  0.2007910987907479  0.9546965195145664   T   T   T
 -0.0000000000000000  0.5876112114782183  0.8754387400408673   T   T   T
 -0.0000000000000000 -0.0466994201555436  0.7872494063286692   T   T   T
  0.5000000000000001  0.8061665157899561  0.5972068502663459   T   T   T
  0.5000000000000001  0.1594183274837366  0.6715788804468620   T   T   T
 -0.0000000000000000  0.3053116348757161  0.5711948785324644   T   T   T
  0.5000000000000001  0.4735095209089388  0.4925044336762529   T   T   T
 -0.0000000000000000  0.6746677029015169  0.4098423430783475   T   T   T
  0.5000000000000001  0.5136235223883752  0.2171416820466968   T   T   T
  0.5000000000000001  0.8887763919544361  0.3533415979162662   T   T   T
 -0.0000000000000000  0.0947299268536034  0.2329259363051969   T   T   T
  0.5000000000000001  0.8334465408540243  0.0655276172336497   T   T   T
