Sr Co O 
 1.0000000000000000
     3.6971910564669694    0.0000000000000000    0.0000000000000000
     0.0000000000000000    3.9005727112592585    0.0000000000000000
     0.0000000000000000    0.0000000000000000   20.2113759944381037
 Sr  Co  O  
   5   5  11
Selective dynamics
Direct
  0.0000000000000000  0.0000000000000000 -0.0093927167398402   T   T   T
  0.0000000000000000  0.0000000000000000  0.2042712673093200   T   T   T
  0.0000000000000000  0.0000000000000000  0.4073816602259153   T   T   T
  0.0000000000000000  0.0000000000000000  0.5934457526763636   T   T   T
  0.0000000000000000  0.0000000000000000  0.8041032655611500   T   T   T
  0.5000000000000001  0.4999999999999994  0.1035661604563497   T   T   T
  0.5000000000000001  0.4999999999999994  0.2976659954349922   T   T   T
  0.5000000000000001  0.4999999999999994  0.4985331245947032   T   T   T
  0.5000000000000001  0.4999999999999994  0.7024118836872260   T   T   T
  0.5000000000000001  0.4999999999999994  0.8956000159192563   T   T   T
  0.5000000000000001  0.0000000000000000  0.0826613194288042   T   T   T
  0.5000000000000001  0.4999999999999994  0.1983053882042349   T   T   T
  0.5000000000000001  0.0000000000000000  0.2918337773864420   T   T   T
  0.5000000000000001  0.4999999999999994  0.3877417449941777   T   T   T
  0.0000000000000000  0.4999999999999994  0.5007467615842441   T   T   T
  0.5000000000000001  0.0000000000000000  0.5000794239991733   T   T   T
  0.5000000000000001  0.4999999999999994  0.6138104296196383   T   T   T
  0.5000000000000001  0.0000000000000000  0.7054380430095041   T   T   T
  0.5000000000000001  0.4999999999999994  0.7944712980058752   T   T   T
  0.0000000000000000  0.4999999999999994  0.9232398239543268   T   T   T
  0.5000000000000001  0.0000000000000000  0.9040855762636834   T   T   T
