Sr Co O 
 1.0000000000000000
    -3.6947272724131923    0.0000000000000000    0.0000000000000000
     0.0000000000000000    4.1834538757002715    7.9836809268730358
     0.0000000000000000    8.1842892459845604   -7.8928586702280903
 Sr  Co  O  
   6   6  12
Selective dynamics
Direct
 -0.0000000000000000  0.0069724834960598  0.0146746774467510   T   T   T
 -0.0000000000000000  0.2879996083610437  0.8086839871213186   T   T   T
 -0.0000000000000000  0.6502986086580513  0.6369514273758720   T   T   T
 -0.0000000000000000 -0.0347897013233593  0.5054620551559154   T   T   T
 -0.0000000000000000  0.3664305221884972  0.3197113576886038   T   T   T
 -0.0000000000000000  0.7069988930013461  0.1861276536079578   T   T   T
  0.5000000000000000  0.3265657498000653  0.0808656840559556   T   T   T
  0.5000000000000000  0.6477807275338037  0.9005416182437844   T   T   T
  0.5000000000000000 -0.0213384481097199  0.7469976430350346   T   T   T
  0.5000000000000000  0.3268170100582327  0.5850428340485352   T   T   T
  0.5000000000000000  0.6763019177270645  0.4097114374538541   T   T   T
  0.5000000000000000  0.0561060076283143  0.2954286194455578   T   T   T
  0.5000000000000000  0.1652908626512092  0.1645046582722447   T   T   T
  0.5000000000000000  0.2067185988697129  0.9228184006970824   T   T   T
  0.5000000000000000  0.4961264514591047  0.7595778679826252   T   T   T
 -0.0000000000000000 -0.0524038486492896  0.7896640971386167   T   T   T
  0.5000000000000000  0.8097823673646228  0.5895096177983109   T   T   T
  0.5000000000000000  0.1559542542290799  0.6438433136566480   T   T   T
  0.5000000000000000  0.4508966753767381  0.4852590923351131   T   T   T
 -0.0000000000000000  0.6567633943744334  0.4045151375090353   T   T   T
  0.5000000000000000  0.5091690012202958  0.1980182546397551   T   T   T
  0.5000000000000000  0.8558536195469800  0.3289717819618730   T   T   T
 -0.0000000000000000  0.1132407296365421  0.3548941881862942   T   T   T
  0.5000000000000000  0.8031312271080510  0.0348913710645931   T   T   T
