Sr Co O 
 1.0000000000000000
    -3.7018374607797382    0.0000000000000000    0.0000000000000000
     0.0000000000000000    4.0487605020563304    8.0245594505934132
     0.0000000000000000    8.2784800880422011   -8.1157936676808706
 Sr  Co  O  
   6   6  12
Selective dynamics
Direct
 -0.0000000000000000 -0.0339391234031752  0.0121942045446842   T   T   T
 -0.0000000000000000  0.3059364990787128  0.8183737283647615   T   T   T
 -0.0000000000000000  0.6668830140846512  0.6757638338224938   T   T   T
 -0.0000000000000000  0.0363215856724718  0.4807115671967130   T   T   T
 -0.0000000000000000  0.3451487565730475  0.3110201024681223   T   T   T
 -0.0000000000000000  0.7072458652811735  0.1961292889506920   T   T   T
  0.4999999999999998  0.3505306060900890  0.0761521360428511   T   T   T
  0.4999999999999998  0.6445888963403434  0.9371499832310842   T   T   T
  0.4999999999999998 -0.0039441205593249  0.7421601431846305   T   T   T
  0.4999999999999998  0.3260849630965721  0.5801539499402347   T   T   T
  0.4999999999999998  0.6714102469956340  0.4105706316128275   T   T   T
  0.4999999999999998  0.0156755101631075  0.2591760188110490   T   T   T
 -0.0000000000000000  0.2575934725448967  0.0709622152330334   T   T   T
  0.4999999999999998  0.4309092150187322 -0.0623943632421628   T   T   T
 -0.0000000000000000  0.6742585633571595  0.8840380318613517   T   T   T
 -0.0000000000000000 -0.0337663523388420  0.7786713761986116   T   T   T
  0.4999999999999998  0.1354926001089956  0.6502295108269844   T   T   T
 -0.0000000000000000  0.3892808689828841  0.6285429181948567   T   T   T
  0.4999999999999998  0.2252237115352005  0.4079863006470672   T   T   T
 -0.0000000000000000  0.6474652824811097  0.4638535945307527   T   T   T
  0.4999999999999998  0.5126351593409169  0.2409500408711630   T   T   T
  0.4999999999999998  0.8619587273685564  0.3613925702203075   T   T   T
 -0.0000000000000000  0.0389343486685580  0.2399184010209321   T   T   T
  0.4999999999999998  0.8280716354350410  0.0862937144556731   T   T   T
