Sr Co O 
 1.0000000000000000
     3.8092622846973194    0.0000000000000000    0.0000000000000000
     0.0000000000000000    3.7960278093610360    0.0000000000000000
     0.0000000000000000    0.0000000000000000   20.3000864848816391
 Sr  Co  O  
   5   5  11
Selective dynamics
Direct
  0.0000000000000000  0.0000000000000000 -0.0109354638194189   T   T   T
  0.0000000000000000  0.0000000000000000  0.2055223702818848   T   T   T
  0.0000000000000000  0.0000000000000000  0.4094429057656797   T   T   T
  0.0000000000000000  0.0000000000000000  0.5930748550520800   T   T   T
  0.0000000000000000  0.0000000000000000  0.8059255354395429   T   T   T
  0.5000000000000001  0.5000000000000007  0.1028071734921975   T   T   T
  0.5000000000000001  0.5000000000000007  0.2983610621463394   T   T   T
  0.5000000000000001  0.5000000000000007  0.4998246395597462   T   T   T
  0.5000000000000001  0.5000000000000007  0.7028712872565014   T   T   T
  0.5000000000000001  0.5000000000000007  0.8952967976526216   T   T   T
  0.0000000000000000  0.5000000000000007  0.0791278711563353   T   T   T
  0.5000000000000001  0.5000000000000007  0.1969586151232245   T   T   T
  0.0000000000000000  0.5000000000000007  0.2911394794788506   T   T   T
  0.5000000000000001  0.5000000000000007  0.3882437463760588   T   T   T
  0.0000000000000000  0.5000000000000007  0.5018633056355108   T   T   T
  0.5000000000000001  0.0000000000000000  0.5001093254767414   T   T   T
  0.5000000000000001  0.5000000000000007  0.6140056806041170   T   T   T
  0.5000000000000001  0.0000000000000000  0.7067968268261876   T   T   T
  0.5000000000000001  0.5000000000000007  0.7953495037943247   T   T   T
  0.0000000000000000  0.5000000000000007  0.9067600730353658   T   T   T
  0.5000000000000001  0.0000000000000000  0.9174543730935998   T   T   T
