Sr Co O 
 1.0000000000000000
    -3.5993676285335998    0.0000000000000000    0.0000000000000000
     0.0000000000000000    4.1300775732356723    8.2991920488514950
     0.0000000000000000    8.5920320326953199   -8.4635702489560263
 Sr  Co  O  
   6   6  12
Selective dynamics
Direct
 -0.0000000000000000 -0.0425615907142522  0.0164280307696496   T   T   T
 -0.0000000000000000  0.3011198646954589  0.8058930105164490   T   T   T
 -0.0000000000000000  0.6156763023625064  0.5685376611184735   T   T   T
 -0.0000000000000000  0.0106063432384712  0.5438249828973859   T   T   T
 -0.0000000000000000  0.3704560644961340  0.2903979411776972   T   T   T
 -0.0000000000000000  0.6452907028309147  0.1456053849286822   T   T   T
  0.5000000000000001  0.2863303863221001  0.0373456339360417   T   T   T
  0.5000000000000001  0.6673788590686149  0.9193363199680756   T   T   T
  0.5000000000000001 -0.0652749419488589  0.7487477933298710   T   T   T
  0.5000000000000001  0.3174064549964328  0.5466545065121692   T   T   T
  0.5000000000000001  0.7466676939535399  0.3966054696814793   T   T   T
  0.5000000000000001  0.0042072370325913  0.2536803229330765   T   T   T
 -0.0000000000000000  0.5752151472688106  0.9154232880148409   T   T   T
  0.5000000000000001  0.8528646307034569  0.8679991298137204   T   T   T
 -0.0000000000000000  0.2208162070045946  0.9881417492547371   T   T   T
  0.5000000000000001  0.8055822940709609  0.5873664968741608   T   T   T
  0.5000000000000001  0.1235607800992082  0.7222621243927201   T   T   T
 -0.0000000000000000  0.3042722478978181  0.5971300838175431   T   T   T
  0.5000000000000001  0.4399271579167240  0.4490347787218946   T   T   T
 -0.0000000000000000  0.6690371360456728  0.3689331619982711   T   T   T
  0.5000000000000001  0.4556630106440053  0.1682331275309657   T   T   T
  0.5000000000000001  0.9599550200523217  0.4003756254836026   T   T   T
 -0.0000000000000000  0.0916886726486324  0.2289903864466228   T   T   T
  0.5000000000000001  0.8107810488926184  0.0997196313469050   T   T   T
