Sr Co O 
 1.0000000000000000
    -3.6258658694377823    0.0000000000000000    0.0000000000000000
     0.0000000000000000    3.9922820884035164    8.2528349743449176
     0.0000000000000000    7.9823248876482991   -8.2510877649171928
 Sr  Co  O  
   6   6  12
Selective dynamics
Direct
 -0.0000000000000000 -0.0214858662638557 -0.0097936600452759   T   T   T
 -0.0000000000000000  0.3257801227163482  0.8245188637063946   T   T   T
 -0.0000000000000000  0.6679407517689510  0.6856113136462445   T   T   T
 -0.0000000000000000  0.0069863458877804  0.5175246151138790   T   T   T
 -0.0000000000000000  0.3593393481530428  0.3343262405647395   T   T   T
 -0.0000000000000000  0.6797107497725233  0.1591949469233953   T   T   T
  0.5000000000000006  0.3496348267476769  0.0746608732930478   T   T   T
  0.5000000000000006  0.6583295065242453  0.9169395332954060   T   T   T
  0.5000000000000006  0.0051893795923075  0.7653009741967941   T   T   T
  0.5000000000000006  0.3303506698277323  0.5958819539968701   T   T   T
  0.5000000000000006  0.6777695035947189  0.4004009694792495   T   T   T
  0.5000000000000006 -0.0059711900048705  0.2412599437657157   T   T   T
  0.5000000000000006  0.1605665212578426  0.9524996267051489   T   T   T
  0.5000000000000006  0.5024545535668181 -0.0048139864703535   T   T   T
  0.5000000000000006  0.5048074529601436  0.7559815574943830   T   T   T
  0.5000000000000006  0.8112018230931498  0.8419062848248746   T   T   T
 -0.0000000000000000 -0.0504851973709063  0.7145706558255557   T   T   T
  0.5000000000000006  0.1633597602378950  0.6691736975701026   T   T   T
 -0.0000000000000000  0.3202918121752200  0.5300537339451642   T   T   T
 -0.0000000000000000  0.6570265788959258  0.4610506140847053   T   T   T
  0.5000000000000006  0.4691783290171159  0.2436450178055848   T   T   T
  0.5000000000000006  0.8672428081622733  0.3548467903792373   T   T   T
 -0.0000000000000000  0.0795934373233729  0.2303155986151320   T   T   T
  0.5000000000000006  0.8145213980814285  0.0782770648703946   T   T   T
