Sr Co O 
 1.0000000000000000
    -3.7055384828219289    0.0000000000000000    0.0000000000000000
     0.0000000000000000    4.1171830498840114    8.4318411412040959
     0.0000000000000000    8.3302016545650144   -8.4773489114175788
 Sr  Co  O  
   6   6  12
Selective dynamics
Direct
  0.0000000000000000 -0.0569323844544471 -0.0152292094318728   T   T   T
 -0.0000000000000000  0.3333333333333351  0.8333333333333341   T   T   T
 -0.0000000000000000  0.7235990511211137  0.6818958760985383   T   T   T
 -0.0000000000000000 -0.0582807861517065  0.4952261642488930   T   T   T
 -0.0000000000000000  0.3333333333333326  0.3333333333333320   T   T   T
  0.0000000000000000  0.7249474528183736  0.1714405024177740   T   T   T
  0.5000000000000001  0.4250273915896453  0.1064877435934908   T   T   T
  0.5000000000000001  0.6530916490015164  0.9023151655333224   T   T   T
  0.5000000000000001  0.0135750176651471  0.7643515011333408   T   T   T
  0.5000000000000001  0.2416392750770212  0.5601789230731746   T   T   T
  0.5000000000000001  0.6564779663277438  0.4114138328427125   T   T   T
  0.5000000000000001  0.0101887003389222  0.2552528338239524   T   T   T
  0.5000000000000001  0.4591866885914303 -0.0279844484339005   T   T   T
 -0.0000000000000000  0.6015279265081865  0.8407603017564933   T   T   T
  0.5000000000000001  0.8333333333333335  0.8333333333333321   T   T   T
  0.0000000000000000  0.0651387401584793  0.8259063649101706   T   T   T
  0.5000000000000001  0.8574920543109270  0.5965668306783863   T   T   T
  0.5000000000000001  0.2074799780752355  0.6946511151005662   T   T   T
  0.5000000000000001  0.2127393503986029  0.4076876107994671   T   T   T
 -0.0000000000000000  0.6199894296643262  0.4547433393116853   T   T   T
  0.5000000000000001  0.4539273162680647  0.2589790558671990   T   T   T
  0.5000000000000001  0.8333333333333347  0.3333333333333323   T   T   T
  0.0000000000000000  0.0466772370023397  0.2119233273549796   T   T   T
  0.5000000000000001  0.8091746123557414  0.0700998359882798   T   T   T
