Sr Co O 
 1.0000000000000000
    -3.6784519404437397    0.0000000000000000    0.0000000000000000
     0.0000000000000000    4.0338637461789091    8.1618476823665453
     0.0000000000000000    8.2211354359812869   -8.2358921626657011
 Sr  Co  O  
   6   6  12
Selective dynamics
Direct
 -0.0000000000000000 -0.0538037705548693  0.0097362082860690   T   T   T
 -0.0000000000000000  0.3439399005235950  0.7983383356195781   T   T   T
 -0.0000000000000000  0.6695505728815627  0.7027505131957150   T   T   T
 -0.0000000000000000 -0.0076135299719241  0.4880759523362491   T   T   T
 -0.0000000000000000  0.3100365090557791  0.2999994491341411   T   T   T
 -0.0000000000000000  0.6833112347108627  0.1992157081135295   T   T   T
  0.4999999999999992  0.3314678908153292  0.0825925453480592   T   T   T
  0.4999999999999992  0.6212249691063454  0.9456281913515363   T   T   T
  0.4999999999999992  0.0074921849772817  0.7456463993455054   T   T   T
  0.4999999999999992  0.3192793066246092  0.5646919414334071   T   T   T
  0.4999999999999992  0.6579011967766628  0.4215615122200463   T   T   T
  0.4999999999999992 -0.0195921265057081  0.2474447729483258   T   T   T
  0.4999999999999992  0.1562213557218627  0.1281719729121589   T   T   T
  0.4999999999999992  0.4016703341034398 -0.0455230817201360   T   T   T
 -0.0000000000000000  0.6448735052806179  0.9110208940472646   T   T   T
  0.4999999999999992  0.4880607971204001  0.7124296698197079   T   T   T
  0.4999999999999992  0.8789947445822668  0.8291241907892836   T   T   T
  0.4999999999999992  1.1289606627617355  0.6527993122130176   T   T   T
 -0.0000000000000000  0.2861394606854660  0.5063607532153950   T   T   T
 -0.0000000000000000  0.6699251087277329  0.4855080630898856   T   T   T
  0.4999999999999992  0.4854986985426166  0.2501566633685509   T   T   T
  0.4999999999999992  0.8377599563035916  0.3585708434908266   T   T   T
 -0.0000000000000000  0.0278475249266160  0.2745136521228208   T   T   T
  0.4999999999999992  0.7975201762714189  0.0978522199925850   T   T   T
