Sr Co O 
 1.0000000000000000
    -3.7988091640003350    0.0000000000000000    0.0000000000000000
     0.0000000000000000    4.2048810488049604    7.9491585677272063
     0.0000000000000000    7.9297164450832796   -7.6918341976273163
 Sr  Co  O  
   6   6  12
Selective dynamics
Direct
 -0.0000000000000000  0.0232033281846387  0.0017930193811388   T   T   T
 -0.0000000000000000  0.3305499684552635  0.8754405919330571   T   T   T
 -0.0000000000000000  0.7200171692287091  0.6777332870870787   T   T   T
 -0.0000000000000000 -0.0220733806464998  0.4781601420674450   T   T   T
 -0.0000000000000000  0.3126262065996467  0.3496742622363976   T   T   T
 -0.0000000000000000  0.6139114670791728  0.2006399160626469   T   T   T
  0.5000000000000009  0.3278156229696652  0.1002025044976538   T   T   T
  0.5000000000000009  0.6580533477205663  0.9290405744372614   T   T   T
  0.5000000000000009  0.0219008982851010  0.7514505045388965   T   T   T
  0.5000000000000009  0.3742455260115878  0.6221796167176291   T   T   T
  0.5000000000000009  0.6529898099085433  0.4301848505336653   T   T   T
  0.5000000000000009 -0.0585856206901602  0.2163202097489043   T   T   T
 -0.0000000000000000  0.3047742409876998  0.1055850503212734   T   T   T
  0.5000000000000009  0.1729766861579349  0.9156021622641896   T   T   T
  0.5000000000000009  0.5103134519085548  0.0150424876970830   T   T   T
  0.5000000000000009  0.5548466571728456  0.7494416992271791   T   T   T
 -0.0000000000000000  0.0191786150704663  0.7564936349968008   T   T   T
  0.5000000000000009  0.8595091537058004  0.5961337833046804   T   T   T
  0.5000000000000009  0.2110105974473929  0.4908393202103991   T   T   T
 -0.0000000000000000  0.6093198932372719  0.4568855566318246   T   T   T
  0.5000000000000009  0.4532289570965894  0.2762989386277115   T   T   T
  0.5000000000000009  0.8010596732055764  0.3213377971761878   T   T   T
 -0.0000000000000000  0.0232553732479464  0.2434386231163415   T   T   T
  0.5000000000000009  0.8592056330258884  0.0234147812423451   T   T   T
