Sr Co O 
 1.0000000000000000
    -3.6749312040936943    0.0000000000000000    0.0000000000000000
     0.0000000000000000    4.0683837481335861    8.0034969678684540
     0.0000000000000000    8.2450985775754155   -8.0577322019210555
 Sr  Co  O  
   6   6  12
Selective dynamics
Direct
 -0.0000000000000000 -0.0002449231103152  0.0312694155280873   T   T   T
 -0.0000000000000000  0.3105798473009461  0.8123301302774899   T   T   T
 -0.0000000000000000  0.6719710156414778  0.6552398628804812   T   T   T
 -0.0000000000000000 -0.0316322639360902  0.4945447961185976   T   T   T
 -0.0000000000000000  0.3397459784656471  0.3045389592901147   T   T   T
 -0.0000000000000000  0.6794923259873913  0.1915758565139536   T   T   T
  0.5000000000000001  0.3449373164315179  0.0815134417712510   T   T   T
  0.5000000000000001  0.6615421597443902  0.9197134135618609   T   T   T
  0.5000000000000001 -0.0023730748518260  0.7496600398726744   T   T   T
  0.5000000000000001  0.3184976381526353  0.5735141585773643   T   T   T
  0.5000000000000001  0.6633978397104338  0.4137067206049525   T   T   T
  0.5000000000000001  0.0080015738201017  0.2593065464971804   T   T   T
  0.5000000000000001  0.1626293615749322  0.1477020296792945   T   T   T
 -0.0000000000000000  0.3688545594770897  0.0296995786950154   T   T   T
 -0.0000000000000000  0.6112728859377609  0.8570767662045686   T   T   T
 -0.0000000000000000  0.0092797614763674  0.8186223473513153   T   T   T
  0.5000000000000001  0.8179197913872883  0.6053348301616223   T   T   T
  0.5000000000000001  0.1823456950910417  0.6759000950697950   T   T   T
 -0.0000000000000000  0.3673508230143237  0.5577414482304792   T   T   T
 -0.0000000000000000  0.6268369921901430  0.4334748138548761   T   T   T
  0.5000000000000001  0.5057975806630289  0.2424277286352096   T   T   T
  0.5000000000000001  0.8475512113662326  0.3492206768873435   T   T   T
 -0.0000000000000000  0.0615007020055318  0.3046443645505940   T   T   T
  0.5000000000000001  0.8080784294287089  0.0745752806681833   T   T   T
