Sr Co O 
 1.0000000000000000
    -3.7175730451408335    0.0000000000000000    0.0000000000000000
     0.0000000000000000    3.9293547251030594    8.1364626008586516
     0.0000000000000000    8.2119278877504858   -8.3153775363126918
 Sr  Co  O  
   6   6  12
Selective dynamics
Direct
 -0.0000000000000000 -0.0370329558992572  0.0143539900549935   T   T   T
 -0.0000000000000000  0.3432335168041170  0.8164026434551810   T   T   T
 -0.0000000000000000  0.6979575928837686  0.6973373271927990   T   T   T
 -0.0000000000000000  0.0473376112328977  0.4793440585781965   T   T   T
 -0.0000000000000000  0.3499508347597705  0.3224194905790840   T   T   T
 -0.0000000000000000  0.7207310124347348  0.2124922249402579   T   T   T
  0.4999999999999999  0.3533138412362712  0.0910579724049640   T   T   T
  0.4999999999999999  0.6394038266987613  0.9530076420152960   T   T   T
  0.4999999999999999  0.0192683522389883  0.7350899945920942   T   T   T
  0.4999999999999999  0.3476049492345258  0.5806836844852220   T   T   T
  0.4999999999999999  0.6845650639935986  0.4246840301109673   T   T   T
  0.4999999999999999  0.0299840500561031  0.2493797764436777   T   T   T
  0.4999999999999999  0.1651119654951048  0.1186041392764436   T   T   T
  0.4999999999999999 -0.1244035940422864  0.8053368798774364   T   T   T
  0.4999999999999999  0.4197048486766675 -0.0416197135361718   T   T   T
 -0.0000000000000000  0.6456018796353256  0.8933863941037754   T   T   T
  0.4999999999999999  0.1647898504818951  0.6642349758987762   T   T   T
 -0.0000000000000000  0.4096695089980882  0.6260062404061431   T   T   T
  0.4999999999999999  0.2331305044344024  0.4108282151059947   T   T   T
 -0.0000000000000000  0.6565163968293805  0.4743994211734480   T   T   T
  0.4999999999999999  0.5153396820161691  0.2479574780924810   T   T   T
  0.4999999999999999  0.8694778223985794  0.3721808512187216   T   T   T
 -0.0000000000000000  0.0273839168075374  0.2539862118425104   T   T   T
  0.4999999999999999  0.8213595150746403  0.0984459406256450   T   T   T
