Sr Co O 
 1.0000000000000000
    -3.7546479303356430    0.0000000000000000    0.0000000000000000
     0.0000000000000000    3.9276393597912453    8.1231650470390768
     0.0000000000000000    8.1147028082101968   -8.2547084952688063
 Sr  Co  O  
   6   6  12
Selective dynamics
Direct
 -0.0000000000000000 -0.0185018874650915 -0.0255348772526375   T   T   T
 -0.0000000000000000  0.3832165605615037  0.8618249299992246   T   T   T
 -0.0000000000000000  0.6376834539068322  0.6815410790934310   T   T   T
 -0.0000000000000000 -0.0304023519970466  0.4757182629735603   T   T   T
 -0.0000000000000000  0.3471506743757993  0.3561539108125956   T   T   T
 -0.0000000000000000  0.7114894220390923  0.1463640673821797   T   T   T
  0.5000000000000002  0.3521990304543729  0.0874989897307801   T   T   T
  0.5000000000000002  0.6813620977871566  0.9158580028593351   T   T   T
  0.5000000000000002  0.0290916224399345  0.7611347235036182   T   T   T
  0.5000000000000002  0.2995760137453768  0.6085978261282823   T   T   T
  0.5000000000000002  0.6472359669403412  0.3860408928571776   T   T   T
  0.5000000000000002  0.0003620009054954  0.2456060815063542   T   T   T
  0.5000000000000002  0.1811775464928752  0.9350365027796449   T   T   T
  0.5000000000000002  0.5218702549243315  0.0279483820852485   T   T   T
 -0.0000000000000000  0.6825899497953223  0.9158649132187190   T   T   T
  0.5000000000000002  0.4840147931784513  0.7563815452378642   T   T   T
  0.5000000000000002  0.8390309020562429  0.7871742271827733   T   T   T
  0.5000000000000002  0.0846941616136091  0.6228306809394034   T   T   T
 -0.0000000000000000  0.3209855644377088  0.5566810160438869   T   T   T
 -0.0000000000000000  0.6590934343755551  0.4630719022950509   T   T   T
  0.5000000000000002  0.4204642162933285  0.2578909535775038   T   T   T
  0.5000000000000002  0.8213413170928916  0.3220362781849986   T   T   T
 -0.0000000000000000  0.0611349239569808  0.2824047467064147   T   T   T
  0.5000000000000002  0.8831401699491103  0.0718748254283408   T   T   T
