Sr Co O 
 1.0000000000000000
    -3.6460294512564033    0.0000000000000000    0.0000000000000000
     0.0000000000000000    4.0390444631426670    8.3974716872615076
     0.0000000000000000    7.8806664033574760   -8.3047885465332776
 Sr  Co  O  
   6   6  12
Selective dynamics
Direct
 -0.0000000000000000 -0.0052583549888511  0.0111962286030568   T   T   T
 -0.0000000000000000  0.3271347073787730  0.7994797187910965   T   T   T
 -0.0000000000000000  0.6306131934433569  0.6517729014271277   T   T   T
 -0.0000000000000000  0.0103023405594706  0.5028227301310885   T   T   T
 -0.0000000000000000  0.3805931810497031  0.3343068747599006   T   T   T
 -0.0000000000000000  0.7026071530591934  0.1951339220201886   T   T   T
  0.4999999999999998  0.3487722109285008  0.0715417221388031   T   T   T
  0.4999999999999998  0.6424947667930777  0.9346846172503370   T   T   T
  0.4999999999999998 -0.0261612919989171  0.7513113327963165   T   T   T
  0.4999999999999998  0.3483817383955285  0.5737441489593805   T   T   T
  0.4999999999999998  0.6830610316561713  0.4187058056188178   T   T   T
  0.4999999999999998  0.0105210126086814  0.2445816946517502   T   T   T
 -0.0000000000000000  0.2710302109984890  0.0202558276894980   T   T   T
 -0.0000000000000000  0.5840466183965154  0.9688439785174731   T   T   T
  0.4999999999999998  0.5149626488476504  0.7529293042068949   T   T   T
 -0.0000000000000000 -0.0890550376498044  0.7791419095271079   T   T   T
  0.4999999999999998  0.1281235919037788  0.6843999738480705   T   T   T
 -0.0000000000000000  0.2905830406477560  0.5512220264643543   T   T   T
  0.4999999999999998  0.4996274330141197  0.4853186157026560   T   T   T
 -0.0000000000000000  0.7311844181212742  0.4703809499661537   T   T   T
  0.4999999999999998  0.5157640212383581  0.2279453393817425   T   T   T
  0.4999999999999998  0.8780863602085393  0.3447864894856114   T   T   T
 -0.0000000000000000  0.0990128464605025  0.2480700126949408   T   T   T
  0.4999999999999998  0.8569056761003946  0.0607572911113668   T   T   T
