Sr Co O 
 1.0000000000000000
    -3.6379270046698631    0.0000000000000000    0.0000000000000000
     0.0000000000000000    3.7948278806375972    8.2162286998766270
     0.0000000000000000    8.5836121950758795   -8.6833110971452303
 Sr  Co  O  
   6   6  12
Selective dynamics
Direct
 -0.0000000000000000 -0.0178149015244858  0.0255211568244713   T   T   T
 -0.0000000000000000  0.3046294136811299  0.7956573603621088   T   T   T
 -0.0000000000000000  0.6213636567297671  0.6575348709943739   T   T   T
 -0.0000000000000000 -0.0083513204737038  0.5282476906136961   T   T   T
 -0.0000000000000000  0.3716106722631716  0.2905123259800019   T   T   T
 -0.0000000000000000  0.7423661089780635  0.1932669015593923   T   T   T
  0.4999999999999997  0.3646830701579691  0.0687714620049890   T   T   T
  0.4999999999999997  0.6254270671090010  0.9176755497004785   T   T   T
  0.4999999999999997 -0.0396514325290447  0.7715499379653400   T   T   T
  0.4999999999999997  0.3099801388352089  0.5459768254408808   T   T   T
  0.4999999999999997  0.6835496028105190  0.3996002742883960   T   T   T
  0.4999999999999997  0.0682215364546552  0.3059687674919955   T   T   T
 -0.0000000000000000  0.2661197511749941  0.0726890814559873   T   T   T
  0.4999999999999997  0.4240716303653747 -0.0674862686890415   T   T   T
  0.4999999999999997  0.5531061484004328  0.7548571760198969   T   T   T
 -0.0000000000000000 -0.0934673369399149  0.8013478867175540   T   T   T
  0.4999999999999997  0.0915582753041668  0.6840363495030094   T   T   T
 -0.0000000000000000  0.2991160926030992  0.5899270507806803   T   T   T
  0.4999999999999997  0.3007512248141101  0.3902304394596686   T   T   T
 -0.0000000000000000  0.6761972314174068  0.4682245773101190   T   T   T
  0.4999999999999997  0.5492715999391710  0.2286907992057641   T   T   T
  0.4999999999999997  0.8932141604576230  0.3737015153470105   T   T   T
 -0.0000000000000000  0.0417256509958246  0.2382371246340035   T   T   T
  0.4999999999999997  0.8056551112576537  0.0485943934412423   T   T   T
