Sr Co O 
 1.0000000000000000
    -3.7048706852222977    0.0000000000000000    0.0000000000000000
     0.0000000000000000   -8.1003152787422685    0.0152659925587763
     0.0000000000000000    4.0278779902623532   11.9312987209586918
 Sr  Co  O  
   6   6  14
Selective dynamics
Direct
 -0.0000000000000000  0.0007414142269942 -0.0086928564691943   T   T   T
 -0.0000000000000000  0.1902090147486165  0.3258654182918720   T   T   T
 -0.0000000000000000  0.3528330632204171  0.6791535158467727   T   T   T
 -0.0000000000000000  0.4959890697731092 -0.0011704154774498   T   T   T
 -0.0000000000000000  0.6452134085220441  0.3431612639156166   T   T   T
 -0.0000000000000000  0.8072473124714473  0.6672129626712661   T   T   T
  0.5000000000000000  0.8282408062616886  0.1564443251831669   T   T   T
  0.5000000000000000 -0.0082308718853901  0.5101024128788307   T   T   T
  0.5000000000000000  0.1691836891906771  0.8288674881711705   T   T   T
  0.5000000000000000  0.3373364986772168  0.1653015135647006   T   T   T
  0.5000000000000000  0.5040236616947162  0.5034881299001005   T   T   T
  0.5000000000000000  0.6663036116675439  0.8346591675019054   T   T   T
  0.5000000000000000  0.7576905800578569  0.0024293230841410   T   T   T
  0.5000000000000000  0.0595332152873551  0.1870741352945797   T   T   T
 -0.0000000000000000  0.0109124103693854  0.4556792342024149   T   T   T
  0.5000000000000000  0.1195635538958006  0.6717952743285361   T   T   T
  0.5000000000000000  0.4014197342470645  0.8434432388025362   T   T   T
  0.5000000000000000  0.2326975085062724 -0.0140442450509917   T   T   T
 -0.0000000000000000  0.3364743606870476  0.1600373827860661   T   T   T
  0.5000000000000000  0.6316052573678046  0.1919803726951577   T   T   T
  0.5000000000000000  0.4121831102318270  0.3409991404241417   T   T   T
 -0.0000000000000000  0.4498448003721839  0.5034682055017906   T   T   T
  0.5000000000000000  0.7486848462177009  0.5007772448411812   T   T   T
  0.5000000000000000  0.5690251798838605  0.6641166523032974   T   T   T
 -0.0000000000000000  0.6735650134297431  0.8350452871404404   T   T   T
  0.5000000000000000  0.9410430493005323  0.8194724878588985   T   T   T
