Sr Co O 
 1.0000000000000000
    -3.6113099890691518    0.0000000000000000    0.0000000000000000
     0.0000000000000000   -8.6571585408568801   -0.0214365639475286
     0.0000000000000000    4.3313736591365064   11.4684921502343542
 Sr  Co  O  
   6   6  13
Selective dynamics
Direct
 -0.0000000000000000  0.0025218997551296  0.0047712121368113   T   T   T
 -0.0000000000000000  0.1471774578636460  0.3306493291431565   T   T   T
 -0.0000000000000000  0.3553518424687294  0.6843519469710537   T   T   T
 -0.0000000000000000  0.5198852465779797 -0.0033337321117329   T   T   T
 -0.0000000000000000  0.7059290922737987  0.3581562562935084   T   T   T
 -0.0000000000000000  0.8212203169023597  0.6744819997924349   T   T   T
  0.4999999999999996  0.8155300843449271  0.1819654395605101   T   T   T
  0.4999999999999996  0.0266074991838223  0.5158743855059739   T   T   T
  0.4999999999999996  0.1580378864652141  0.8410547745609540   T   T   T
  0.4999999999999996  0.3605824171480767  0.1789148385732935   T   T   T
  0.4999999999999996  0.4701700060515224  0.4916809323726896   T   T   T
  0.4999999999999996  0.6788590260736455  0.8315950138633196   T   T   T
 -0.0000000000000000  0.8308380213341260  0.1361994838003411   T   T   T
  0.4999999999999996  0.9341372250254822  0.3507690509571243   T   T   T
  0.4999999999999996  0.2370416132894230  0.5001681923544634   T   T   T
  0.4999999999999996  0.1234163559519383  0.6745042631175148   T   T   T
 -0.0000000000000000  0.2161151808843869  0.9100327475432453   T   T   T
  0.4999999999999996  0.4682210587246435  0.8499892577941238   T   T   T
  0.4999999999999996  0.5657759262016552  0.1766496721554393   T   T   T
  0.4999999999999996  0.1525098053782427  0.1697240753918224   T   T   T
 -0.0000000000000000  0.4640775901036980  0.4187678005453925   T   T   T
  0.4999999999999996  0.8136141330362505  0.5170363349581402   T   T   T
  0.4999999999999996  0.5912684575454833  0.6588074785081153   T   T   T
 -0.0000000000000000  0.7030642731363942  0.8694891200719150   T   T   T
  0.4999999999999996  0.9213809087055779  0.8443668651548529   T   T   T
