Sr Co O 
 1.0000000000000000
     3.7296752916213936    0.0000000000000000    0.0000000000000000
     0.0000000000000000    3.8880841752373874    0.0000000000000000
     0.0000000000000000    0.0000000000000000   20.6161383211766029
 Sr  Co  O  
   5   5  10
Selective dynamics
Direct
  0.0000000000000000  0.0000000000000000 -0.0195540749652231   T   T   T
  0.0000000000000000  0.0000000000000000  0.2162897329943892   T   T   T
  0.0000000000000000  0.0000000000000000  0.3875612054753789   T   T   T
  0.0000000000000000  0.0000000000000000  0.6050898090496301   T   T   T
  0.0000000000000000  0.0000000000000000  0.8021140787355882   T   T   T
  0.4999999999999996  0.4999999999999994  0.1013305343936544   T   T   T
  0.4999999999999996  0.4999999999999994  0.3070522300969307   T   T   T
  0.4999999999999996  0.4999999999999994  0.5032549374798005   T   T   T
  0.4999999999999996  0.4999999999999994  0.6943411752110366   T   T   T
  0.4999999999999996  0.4999999999999994  0.8876353186138449   T   T   T
  0.4999999999999996  0.4999999999999994  0.0131122860008255   T   T   T
  0.0000000000000000  0.4999999999999994  0.1380036479674562   T   T   T
  0.0000000000000000  0.4999999999999994  0.3010284509360929   T   T   T
  0.4999999999999996  0.0000000000000000  0.2952020636725057   T   T   T
  0.4999999999999996  0.4999999999999994  0.4177959530005806   T   T   T
  0.4999999999999996  0.4999999999999994  0.5907075458698350   T   T   T
  0.4999999999999996  0.0000000000000000  0.6877437268244724   T   T   T
  0.4999999999999996  0.4999999999999994  0.7834893455199184   T   T   T
  0.0000000000000000  0.4999999999999994  0.8943642861682369   T   T   T
  0.4999999999999996  0.0000000000000000  0.8934377154178558   T   T   T
