Sr Co O 
 1.0000000000000000
    -3.7293867797208007    0.0000000000000000    0.0000000000000000
     0.0000000000000000   -8.2209133883359566    0.0598214916585345
     0.0000000000000000    4.0212091022884557   11.9150312653246342
 Sr  Co  O  
   6   6  13
Selective dynamics
Direct
 -0.0000000000000000 -0.0015345300726860 -0.0149367952986271   T   T   T
 -0.0000000000000000  0.1973589121411058  0.3533236043347808   T   T   T
 -0.0000000000000000  0.3751687969719324  0.6707559370816473   T   T   T
 -0.0000000000000000  0.4993478424186359 -0.0022966723212729   T   T   T
 -0.0000000000000000  0.6210543729195598  0.3323758751492473   T   T   T
 -0.0000000000000000  0.8005441308040331  0.6619178397867129   T   T   T
  0.5000000000000008  0.8141431900879851  0.1695937025359889   T   T   T
  0.5000000000000008 -0.0170254439001166  0.4732576168787717   T   T   T
  0.5000000000000008  0.1811579929237444  0.8401953187282866   T   T   T
  0.5000000000000008  0.3229839998647526  0.1646864681700232   T   T   T
  0.5000000000000008  0.5081032332473769  0.5033215331860147   T   T   T
  0.5000000000000008  0.6749826045290026  0.8387376324066718   T   T   T
  0.5000000000000008  0.8070504261500301  0.0228200566425537   T   T   T
  0.5000000000000008  0.9629484846221494  0.3129704025593792   T   T   T
  0.5000000000000008  0.2134459672007219  0.5298761405886135   T   T   T
  0.5000000000000008  0.3941019096109273  0.8264474301136533   T   T   T
  0.5000000000000008  0.2448338337739538 -0.0031069833328474   T   T   T
 -0.0000000000000000  0.2458512446477844  0.1678633952641999   T   T   T
  0.5000000000000008  0.5814290404436431  0.1670179427795051   T   T   T
  0.5000000000000008  0.4111536641164474  0.3404058951437694   T   T   T
 -0.0000000000000000  0.4997037780030310  0.5030763279066678   T   T   T
  0.5000000000000008  0.7771664047464760  0.4960804274655340   T   T   T
  0.5000000000000008  0.5899879118076768  0.6656301628892913   T   T   T
 -0.0000000000000000  0.6779253879364076  0.8447127377298629   T   T   T
  0.5000000000000008  0.9514501937049592  0.8019406864706144   T   T   T
