Sr Co O 
 1.0000000000000000
    -3.6749629859728365   -0.0000000000000000    0.0000000000000000
    -0.0000000000000000   -8.2743631214285394   -0.0000000000000000
     0.0000000000000000    4.1371815607142697   12.3966071801653221
 Sr  Co  O  
   6   6  13
Selective dynamics
Direct
  0.0000000000000000 -0.0524772474103576 -0.0212090726893625   T   T   T
  0.0000000000000000  0.1957335031953375  0.3280795101890865   T   T   T
  0.0000000000000000  0.3500826136016985  0.6666666666666662   T   T   T
 -0.0000000000000000  0.5343206596729184  0.0052538231442474   T   T   T
 -0.0000000000000000  0.6353984919456720  0.3545424060226968   T   T   T
 -0.0000000000000000  0.8871113148890670  0.6666666666666662   T   T   T
  0.4999999999999994  0.8204954518210037  0.1905855541938194   T   T   T
  0.4999999999999994 -0.0122003158672111  0.4762649980211760   T   T   T
  0.4999999999999994  0.1782013527782789  0.8570683353121574   T   T   T
  0.4999999999999994  0.2965765642938518  0.1427477791395141   T   T   T
  0.4999999999999994  0.5319838564955516  0.5212639450231510   T   T   T
  0.4999999999999994  0.6773865781390660  0.8120693883101817   T   T   T
  0.4999999999999994  0.7930480573838417  0.0433444921454928   T   T   T
  0.0000000000000000  0.7303891184429893  0.1949531661759722   T   T   T
  0.4999999999999994  0.9938416660207956  0.3264126905308629   T   T   T
  0.0000000000000000  0.0624491937040122  0.5314518276007433   T   T   T
  0.0000000000000000  0.1976640327699342  0.8018815057325893   T   T   T
  0.4999999999999994  0.3340956421565993  0.0069206428024711   T   T   T
  0.0000000000000000  0.2021026189336842  0.1383801671573612   T   T   T
  0.4999999999999994  0.4163702319050149  0.2899888411878408   T   T   T
 -0.0000000000000000  0.4539186546442062  0.4849173716647718   T   T   T
  0.4999999999999994  0.7690131284595826  0.5120382860309354   T   T   T
  0.4999999999999994  0.5285187154645354  0.6666666666666662   T   T   T
  0.0000000000000000  0.6356679496461005  0.8484159616685618   T   T   T
  0.4999999999999994  0.9236415090953142  0.8212950473023983   T   T   T
