Sr Co O 
 1.0000000000000000
    -3.7349048192639489    0.0000000000000000    0.0000000000000000
     0.0000000000000000   -7.9781065582228337   -0.0000000000000000
     0.0000000000000000    3.9890532791114168   12.7862058848385658
 Sr  Co  O  
   6   6  13
Selective dynamics
Direct
 -0.0000000000000000  0.0011555122345221 -0.0346816820052919   T   T   T
 -0.0000000000000000  0.1927375947758489  0.3679889029213887   T   T   T
  0.0000000000000000  0.3236965333865365  0.6565894082992735   T   T   T
  0.0000000000000000  0.4641628057601857 -0.0346816820052919   T   T   T
  0.0000000000000000  0.6752513081455387  0.3679889029213887   T   T   T
 -0.0000000000000000  0.8328928749127330  0.6565894082992735   T   T   T
  0.5000000000000000  0.8394528059114233  0.1789056118228463   T   T   T
  0.5000000000000000  0.0036038908341412  0.5072077816682857   T   T   T
  0.5000000000000000  0.1563873525577014  0.8127747051154092   T   T   T
  0.5000000000000000  0.3331010651461369  0.1662021302922737   T   T   T
  0.5000000000000000  0.5103725513462274  0.5207451026924578   T   T   T
  0.5000000000000000  0.6635300474543588  0.8270600949087239   T   T   T
  0.5000000000000000  0.9085804152166332  0.3171608304332661   T   T   T
 -0.0000000000000000 -0.0023343027145910  0.4953313945708213   T   T   T
  0.5000000000000000  0.2583275390812708  0.5055966530327662   T   T   T
  0.5000000000000000  0.0828217491456872  0.6656434982913777   T   T   T
 -0.0000000000000000  0.1714029772156308  0.8428059544312679   T   T   T
  0.5000000000000000  0.4116632165399718  0.8469344110813312   T   T   T
 -0.0000000000000000  0.3029945065034617  0.1059890130069233   T   T   T
  0.5000000000000000  0.4040942941096446  0.3081885882192923   T   T   T
 -0.0000000000000000  0.5016462198032404  0.5032924396064840   T   T   T
  0.5000000000000000  0.7472691139514912  0.5055966530327662   T   T   T
  0.5000000000000000  0.5895602451026085  0.6791204902052201   T   T   T
 -0.0000000000000000  0.6923584327593850  0.8847168655187762   T   T   T
  0.5000000000000000  0.9352711945413562  0.8469344110813312   T   T   T
