Sr Co O 
 1.0000000000000000
    -3.7084436033115709    0.0000000000000000    0.0000000000000000
     0.0000000000000000   -8.2874184676828015    0.1096578215969138
     0.0000000000000000    3.9832564113558910   12.0603146254004283
 Sr  Co  O  
   6   6  13
Selective dynamics
Direct
 -0.0000000000000000 -0.0311813518068897 -0.0036553838788287   T   T   T
 -0.0000000000000000  0.1751360204183268  0.3503567829076839   T   T   T
 -0.0000000000000000  0.3472758564987453  0.6400298566006204   T   T   T
 -0.0000000000000000  0.5303175359484760  0.0340418555473611   T   T   T
 -0.0000000000000000  0.6846722329250722  0.3341407601905004   T   T   T
 -0.0000000000000000  0.7900619426015894  0.6426052766539244   T   T   T
  0.4999999999999994  0.8912106124976313  0.1834841759083711   T   T   T
  0.4999999999999994 -0.0006741496052417  0.5029725257998794   T   T   T
  0.4999999999999994  0.1418968054593984  0.8718813629116872   T   T   T
  0.4999999999999994  0.3268079768406278  0.1599719034762182   T   T   T
  0.4999999999999994  0.4935006947162275  0.4823369516528796   T   T   T
  0.4999999999999994  0.6733626233942167  0.8227313784359125   T   T   T
 -0.0000000000000000  0.8294242247045556  0.1428384282828253   T   T   T
  0.4999999999999994  0.0901095373459742  0.1206415627725261   T   T   T
  0.4999999999999994  0.9295421176859131  0.3391511445716692   T   T   T
 -0.0000000000000000  0.0278688391802418  0.5618375020835691   T   T   T
  0.4999999999999994  0.2391201502500345  0.5043233448959831   T   T   T
  0.4999999999999994  0.3130392295173418 -0.0057783711859554   T   T   T
  0.4999999999999994  0.5537722387420981  0.1801338870750194   T   T   T
  0.4999999999999994  0.3555601900111434  0.3072096545202203   T   T   T
 -0.0000000000000000  0.4922934609496826  0.4842853555825966   T   T   T
  0.4999999999999994  0.7530308316709826  0.4933178517839338   T   T   T
  0.4999999999999994  0.5651410960546740  0.6668675051629969   T   T   T
 -0.0000000000000000  0.6566208103035189  0.8786829047614694   T   T   T
  0.4999999999999994  0.9220906849120966  0.8055918639527748   T   T   T
