Sr Co O 
 1.0000000000000000
    -3.6644771531555596    0.0000000000000000    0.0000000000000000
     0.0000000000000000    4.2443952758720629    8.2028743172691989
     0.0000000000000000    8.1465033785383003   -8.0223244698150946
 Sr  Co  O  
   6   6  12
Selective dynamics
Direct
 -0.0000000000000000 -0.0608516346284652  0.0257003935522328   T   T   T
 -0.0000000000000000  0.3406124054951621  0.8189787263536052   T   T   T
 -0.0000000000000000  0.7364691515654608  0.6926562795056288   T   T   T
 -0.0000000000000000  0.0684270734195394  0.5071457047467856   T   T   T
 -0.0000000000000000  0.2969926883773016  0.3074137437312031   T   T   T
 -0.0000000000000000  0.6082033263420243  0.1320595775068420   T   T   T
  0.4999999999999998  0.2709183625555922  0.0417785600996666   T   T   T
  0.4999999999999998  0.6586254104839200  0.9147681978044993   T   T   T
  0.4999999999999998  0.0267742607448279  0.7762282153438336   T   T   T
  0.4999999999999998  0.4015471083459776  0.5716025556068921   T   T   T
  0.4999999999999998  0.6604668767313155  0.4082772700174545   T   T   T
  0.4999999999999998 -0.0705713232288128  0.2690457815050245   T   T   T
 -0.0000000000000000  0.2230400674507404  0.0693968058389198   T   T   T
  0.4999999999999998  0.4448493507246410 -0.0106129895391956   T   T   T
 -0.0000000000000000  0.6188291695559497  0.8597607754205963   T   T   T
  0.4999999999999998  0.8790840389206218  0.8634153637451231   T   T   T
 -0.0000000000000000  0.0354985330824286  0.7302319978491000   T   T   T
  0.4999999999999998  0.2764996912721187  0.6720129750404195   T   T   T
  0.4999999999999998  0.2454570100423765  0.4227772368350629   T   T   T
  0.4999999999999998  0.6011086290390941  0.5680942083281457   T   T   T
 -0.0000000000000000  0.5734381729322430  0.3315881243371487   T   T   T
  0.4999999999999998  0.8794790385959614  0.4260402627334432   T   T   T
 -0.0000000000000000  0.0060214887900606  0.2567890616633570   T   T   T
  0.4999999999999998  0.7790813137441616  0.0948511510170272   T   T   T
