Sr Co O 
 1.0000000000000000
    -3.7075063167749445    0.0000000000000000    0.0000000000000000
     0.0000000000000000   -8.1079783568278128   -0.0000000000000000
     0.0000000000000000    4.0539891784139064   11.8893403064406353
 Sr  Co  O  
   6   6  15
Selective dynamics
Direct
 -0.0000000000000000  0.0027648473942111 -0.0052764163565036   T   T   T
 -0.0000000000000000  0.1969103030930594  0.3430463125981387   T   T   T
 -0.0000000000000000  0.3436106740614625  0.6635445243053849   T   T   T
  0.0000000000000000  0.4919587362492848 -0.0052764163565036   T   T   T
  0.0000000000000000  0.6461360095050784  0.3430463125981387   T   T   T
  0.0000000000000000  0.8199338502439208  0.6635445243053849   T   T   T
  0.5000000000000010  0.8277055089492116  0.1554110178984241   T   T   T
  0.5000000000000010  0.0001244999487527  0.5002489998975056   T   T   T
  0.5000000000000010  0.1655078360445051  0.8310156720890109   T   T   T
  0.5000000000000010  0.3340521827800201  0.1681043655600407   T   T   T
  0.5000000000000010  0.5017775481218884  0.5035550962437777   T   T   T
  0.5000000000000010  0.6657420908454272  0.8314841816908561   T   T   T
  0.5000000000000010  0.7519996582901163  0.0039993165802335   T   T   T
  0.5000000000000010  0.0559669111573662  0.1898570574195464   T   T   T
 -0.0000000000000000 -0.0276898116191107  0.4446203767617788   T   T   T
  0.5000000000000010  0.2282676563629579  0.5002426527145514   T   T   T
  0.5000000000000010  0.0887050275537614  0.6774100551075229   T   T   T
  0.5000000000000010  0.3924711482924479  0.8358126153666695   T   T   T
  0.5000000000000010  0.2453181451560308 -0.0093637096879380   T   T   T
 -0.0000000000000000  0.3298220241312869  0.1596440482625743   T   T   T
  0.5000000000000010  0.6338901462621793  0.1898570574195464   T   T   T
  0.5000000000000010  0.4174981492723107  0.3349962985446225   T   T   T
 -0.0000000000000000  0.5017431246870165  0.5034862493740342   T   T   T
  0.5000000000000010  0.7719749963515916  0.5002426527145514   T   T   T
  0.5000000000000010  0.5841592840875884  0.6683185681751781   T   T   T
 -0.0000000000000000  0.6696412380941533  0.8392824761883082   T   T   T
  0.5000000000000010  0.9433414670742203  0.8358126153666697   T   T   T
