Sr Co O 
 1.0000000000000000
    -3.7503669036873926    0.0000000000000000    0.0000000000000000
     0.0000000000000000   -8.2148940134583857   -0.0397707089645833
     0.0000000000000000    4.1498300907003420   11.7472000177598961
 Sr  Co  O  
   6   6  14
Selective dynamics
Direct
 -0.0000000000000000  0.0249424111169157 -0.0127223923556216   T   T   T
 -0.0000000000000000  0.1779951671376745  0.3129197020383404   T   T   T
 -0.0000000000000000  0.3599932672938225  0.6877160237256356   T   T   T
 -0.0000000000000000  0.4757380954611307 -0.0038428125299847   T   T   T
 -0.0000000000000000  0.6207809935609273  0.3332929464868136   T   T   T
 -0.0000000000000000  0.8175932056759020  0.6769881143682941   T   T   T
  0.5000000000000003  0.8453400500388395  0.1927245331868694   T   T   T
  0.5000000000000003 -0.0229139087604645  0.4994746993025649   T   T   T
  0.5000000000000003  0.1685008196014317  0.8210352107740281   T   T   T
  0.5000000000000003  0.3334354264454342  0.1586783067025205   T   T   T
  0.5000000000000003  0.4959478578414746  0.5017213157143777   T   T   T
  0.5000000000000003  0.6744978677273714  0.8401063854561009   T   T   T
  0.5000000000000003  1.0226794505041621  0.1389369148299636   T   T   T
  0.5000000000000003 -0.0144437590193089  0.3543448253364671   T   T   T
  0.5000000000000003  0.1241787285005415  0.6436668905747369   T   T   T
 -0.0000000000000000  0.1594079095587038  0.8183422770453306   T   T   T
  0.5000000000000003  0.4483551004008065  0.8476584408973724   T   T   T
  0.5000000000000003  0.2546826855777802 -0.0035122351815862   T   T   T
 -0.0000000000000000  0.3317725647535725  0.1634393356096587   T   T   T
  0.5000000000000003  0.6171970688978706  0.1681035540249853   T   T   T
  0.5000000000000003  0.4024590785381619  0.3294901350011765   T   T   T
 -0.0000000000000000  0.4314947711661870  0.4970820609615518   T   T   T
  0.5000000000000003  0.7462584281157573  0.4944292905407679   T   T   T
  0.5000000000000003  0.5745388531535680  0.6636222302064778   T   T   T
 -0.0000000000000000  0.6961828842323651  0.8819671108301009   T   T   T
  0.5000000000000003  0.9000516491813587  0.8276704172652610   T   T   T
