Sr Co O 
 1.0000000000000000
    -3.7898031797807330    0.0000000000000000    0.0000000000000000
     0.0000000000000000    3.7549771785129882    8.1253986748933631
     0.0000000000000000    7.8293444883157122   -8.2904848518890137
 Sr  Co  O  
   6   6  12
Selective dynamics
Direct
 -0.0000000000000000  0.0026542433056682  0.0273428218469117   T   T   T
 -0.0000000000000000  0.2821246002802822  0.8058783066935434   T   T   T
 -0.0000000000000000  0.6675394881887062  0.6450404191126549   T   T   T
 -0.0000000000000000  0.0140622707709462  0.4880789769366476   T   T   T
 -0.0000000000000000  0.3309305835011465  0.3432634631612845   T   T   T
 -0.0000000000000000  0.7062291768396350  0.1832637352871106   T   T   T
  0.4999999999999996  0.3550186551831511  0.0615752481855426   T   T   T
  0.4999999999999996  0.6581267132301439  0.9149398034478795   T   T   T
  0.4999999999999996 -0.0241900570942117  0.7684776072473366   T   T   T
  0.4999999999999996  0.3550937864682804  0.5835482756518925   T   T   T
  0.4999999999999996  0.6667530822708547  0.4094536407192538   T   T   T
  0.4999999999999996  0.0023727932790166  0.2590524822052745   T   T   T
  0.4999999999999996  0.2260721362122569  0.1458038577180621   T   T   T
  0.4999999999999996  0.4678520701286772 -0.0425970341469847   T   T   T
  0.4999999999999996  0.7590032922525771  0.8010065415028895   T   T   T
 -0.0000000000000000  0.0061260553134505  0.8126183906245914   T   T   T
  0.4999999999999996  0.1073460541625082  0.6692079730612780   T   T   T
 -0.0000000000000000  0.3917810864842926  0.6442922898109849   T   T   T
  0.4999999999999996  0.1775359655869609  0.4231311815063454   T   T   T
  0.4999999999999996  0.5154415733552027  0.4903058746979073   T   T   T
 -0.0000000000000000  0.6662367277378255  0.4074323059282832   T   T   T
  0.4999999999999996  0.8227750552733173  0.3345465616096935   T   T   T
 -0.0000000000000000  0.0149419701070642  0.2494675314553172   T   T   T
  0.4999999999999996  0.8281726139462432  0.0748696882559801   T   T   T
