Sr Co O 
 1.0000000000000000
    -3.6452039113721568    0.0000000000000000    0.0000000000000000
     0.0000000000000000   -8.1709923599373102    0.0490597809208785
     0.0000000000000000    4.0177904025976092   12.6934862477793882
 Sr  Co  O  
   6   6  13
Selective dynamics
Direct
 -0.0000000000000000 -0.0484231563246592 -0.0172778525810295   T   T   T
 -0.0000000000000000  0.1888329377520794  0.3247078011525735   T   T   T
 -0.0000000000000000  0.3501884104392397  0.6706665880820035   T   T   T
 -0.0000000000000000  0.5445668824828780  0.0088653088866201   T   T   T
 -0.0000000000000000  0.6195735037697016  0.3490639226591801   T   T   T
 -0.0000000000000000  0.9251283663332206  0.6857652653866561   T   T   T
  0.5000000000000003  0.8192942385385903  0.1946991684333058   T   T   T
  0.5000000000000003 -0.0257835270430418  0.4778542328468878   T   T   T
  0.5000000000000003  0.1973056270458979  0.8681649104514908   T   T   T
  0.5000000000000003  0.2928023884637689  0.1442892431111851   T   T   T
  0.5000000000000003  0.5272208701375158  0.5228262795183627   T   T   T
  0.5000000000000003  0.6860899334173779  0.8118062288179099   T   T   T
  0.5000000000000003  0.7966770999576621  0.0479108502683420   T   T   T
 -0.0000000000000000  0.7312254084734449  0.1987686862569282   T   T   T
  0.5000000000000003  0.9889577384949724  0.3409022371493096   T   T   T
  0.5000000000000003  0.1010757182449339  0.6172047848305420   T   T   T
 -0.0000000000000000  0.2266152951350719  0.8231185598119134   T   T   T
  0.5000000000000003  0.3414135187041410  0.0159978729676244   T   T   T
 -0.0000000000000000  0.2012428994365505  0.1399068047716364   T   T   T
  0.5000000000000003  0.3958418639418064  0.2884825755720603   T   T   T
 -0.0000000000000000  0.4293390251441776  0.4865033722780548   T   T   T
  0.5000000000000003  0.7438131049776134  0.4835480419756752   T   T   T
  0.5000000000000003  0.5504761964070717  0.6692498520503859   T   T   T
 -0.0000000000000000  0.6442785942934793  0.8499697059563515   T   T   T
  0.5000000000000003  0.9389134813768737  0.8303388278488868   T   T   T
