Sr Co O 
 1.0000000000000000
    -3.6350050979693740    0.0000000000000000    0.0000000000000000
     0.0000000000000000    3.9579260087624752    7.9014288922018849
     0.0000000000000000    8.0870965235276095   -7.9867498464063269
 Sr  Co  O  
   6   6  12
Selective dynamics
Direct
 -0.0000000000000000  0.0048884270869663  0.0067087560095006   T   T   T
  0.0000000000000000  0.3300730842797593  0.8265886409335917   T   T   T
 -0.0000000000000000  0.6699269157202394  0.6734113590664058   T   T   T
  0.0000000000000000 -0.0048884270869660  0.4932912439904992   T   T   T
  0.0000000000000000  0.3061055734635758  0.3417450389353745   T   T   T
 -0.0000000000000000  0.6938944265364249  0.1582549610646242   T   T   T
  0.5000000000000000  0.3355249212173895  0.0633972608961074   T   T   T
  0.5000000000000000  0.6687934853645953  0.9100529580441520   T   T   T
  0.5000000000000000  0.0000000000000004  0.7500000000000001   T   T   T
  0.5000000000000000  0.3312065146354049  0.5899470419558471   T   T   T
  0.5000000000000000  0.6644750787826110  0.4366027391038917   T   T   T
  0.5000000000000000  0.0000000000000001  0.2500000000000001   T   T   T
  0.5000000000000000  0.2339149642497219  0.1784337003857397   T   T   T
  0.5000000000000000  0.1583042264608928  0.9099708431046254   T   T   T
  0.5000000000000000  0.5085217488635120  0.0047950414927367   T   T   T
  0.5000000000000000  0.5000000000000008  0.7500000000000000   T   T   T
  0.5000000000000000  0.8307234822833530  0.8273288089321515   T   T   T
  0.5000000000000000  0.8416957735391070  0.5900291568953734   T   T   T
  0.5000000000000000  0.1692765177166483  0.6726711910678482   T   T   T
  0.5000000000000000  0.1678732885503533  0.4362444524667667   T   T   T
  0.5000000000000000  0.4914782511364890  0.4952049585072629   T   T   T
  0.5000000000000000  0.7660850357502783  0.3215662996142591   T   T   T
 -0.0000000000000000  0.0000000000000001  0.2500000000000001   T   T   T
  0.5000000000000000  0.8321267114496472  0.0637555475332324   T   T   T
