Sr Co O 
 1.0000000000000000
    -3.7068239841603039    0.0000000000000000    0.0000000000000000
     0.0000000000000000   -7.7655890898475288    0.0000000000000000
     0.0000000000000000    3.8827945449237644   13.0449815958862629
 Sr  Co  O  
   6   6  13
Selective dynamics
Direct
  0.0000000000000000 -0.0146452648229326 -0.0116019629056889   T   T   T
  0.0000000000000000  0.1833554180085646  0.3637574160731218   T   T   T
 -0.0000000000000000  0.3284265880835308  0.6469793473079508   T   T   T
 -0.0000000000000000  0.5030433019172439 -0.0116019629056889   T   T   T
 -0.0000000000000000  0.6804019980645567  0.3637574160731220   T   T   T
  0.0000000000000000  0.8185527592244178  0.6469793473079508   T   T   T
  0.5000000000000007  0.8379659112953928  0.1759318225907863   T   T   T
  0.5000000000000007  0.0060789843886460  0.5121579687772940   T   T   T
  0.5000000000000007  0.1586490174408044  0.8172980348816123   T   T   T
  0.5000000000000007  0.3337279391256124  0.1674558782512247   T   T   T
  0.5000000000000007  0.5074401683631717  0.5148803367263449   T   T   T
  0.5000000000000007  0.6617792226870612  0.8235584453741254   T   T   T
 -0.0000000000000000  0.8092032981603963  0.1184065963207933   T   T   T
  0.5000000000000007  0.9076338997869752  0.3152677995739513   T   T   T
 -0.0000000000000000  0.0003647271834785  0.5007294543669589   T   T   T
  0.5000000000000007  0.2530433960988107  0.5033275620602465   T   T   T
  0.5000000000000007  0.0874761838098695  0.6749523676197410   T   T   T
  0.5000000000000007  0.4008535414443540  0.8781805186629714   T   T   T
 -0.0000000000000000  0.3037480599969644  0.1074961199939286   T   T   T
  0.5000000000000007  0.4035638951137321  0.3071277902274654   T   T   T
 -0.0000000000000000  0.4991772667206909  0.4983545334413833   T   T   T
  0.5000000000000007  0.7502841659614338  0.5033275620602465   T   T   T
  0.5000000000000007  0.5868068820096091  0.6736137640192196   T   T   T
 -0.0000000000000000  0.6824082606049258  0.8648165212098542   T   T   T
  0.5000000000000007  0.9773269772186155  0.8781805186629714   T   T   T
