Sr Co O 
 1.0000000000000000
    -3.7351640648068485    0.0000000000000000    0.0000000000000000
     0.0000000000000000   -8.1706408027084780   -0.0000000000000000
     0.0000000000000000    4.0853204013542390   11.8270625168303294
 Sr  Co  O  
   6   6  14
Selective dynamics
Direct
  0.0000000000000000 -0.0141245091497499 -0.0105420303540852   T   T   T
  0.0000000000000000  0.1693164512787116  0.3505874796898054   T   T   T
  0.0000000000000000  0.3506756139969636  0.6615914092912304   T   T   T
 -0.0000000000000000  0.5035824787956650 -0.0105420303540852   T   T   T
 -0.0000000000000000  0.6812710284110941  0.3505874796898054   T   T   T
  0.0000000000000000  0.8109157952942664  0.6615914092912304   T   T   T
  0.5000000000000000  0.8348177638375580  0.1696355276751156   T   T   T
  0.5000000000000000  0.0023520195487909  0.5047040390975824   T   T   T
  0.5000000000000000  0.1708585598697832  0.8417171197395676   T   T   T
  0.5000000000000000  0.3368837267148303  0.1737674534296606   T   T   T
  0.5000000000000000  0.4988628677625895  0.4977257355251797   T   T   T
  0.5000000000000000  0.6613339008604251  0.8226678017208515   T   T   T
 -0.0000000000000000  0.8144698536194080  0.1289397072388158   T   T   T
  0.5000000000000000  0.1043262308755289  0.1286582492581410   T   T   T
  0.5000000000000000  0.9160187157529860  0.3320374315059717   T   T   T
 -0.0000000000000000  0.0260415979704084  0.5520831959408175   T   T   T
  0.5000000000000000  0.2321299996872820  0.5051371879307344   T   T   T
 -0.0000000000000000  0.1891154299193478  0.8782308598386968   T   T   T
  0.5000000000000000  0.3861752116479149  0.8239110736401808   T   T   T
  0.5000000000000000  0.5243320183826123  0.1286582492581410   T   T   T
  0.5000000000000000  0.4146906489697217  0.3293812979394442   T   T   T
 -0.0000000000000000  0.4970003714037331  0.4940007428074667   T   T   T
  0.5000000000000000  0.7730071882434517  0.5051371879307344   T   T   T
  0.5000000000000000  0.5805393625163129  0.6610787250326264   T   T   T
 -0.0000000000000000  0.6810051073137029  0.8620102146274071   T   T   T
  0.5000000000000000  0.9377358619922653  0.8239110736401808   T   T   T
