Sr Co O 
 1.0000000000000000
    -3.7081520195147797    0.0000000000000000    0.0000000000000000
     0.0000000000000000   -8.4517743940967858   -0.0000000000000000
     0.0000000000000000    4.2258871970483929   11.5388974543600185
 Sr  Co  O  
   6   6  13
Selective dynamics
Direct
  0.0000000000000000  0.0198068473709198 -0.0067418419440851   T   T   T
 -0.0000000000000000  0.1996805703981380  0.3304235771510551   T   T   T
  0.0000000000000000  0.3583063267434851  0.6583358358571963   T   T   T
  0.0000000000000000  0.4734513106849943 -0.0067418419440851   T   T   T
  0.0000000000000000  0.6307430067529161  0.3304235771510551   T   T   T
 -0.0000000000000000  0.8000295091137094  0.6583358358571963   T   T   T
  0.5000000000000003  0.8297887482051015  0.1595774964102036   T   T   T
  0.5000000000000003  0.0133107325005300  0.5266214650010610   T   T   T
  0.5000000000000003  0.1617635629382906  0.8235271258765832   T   T   T
  0.5000000000000003  0.3295727283229250  0.1591454566458502   T   T   T
  0.5000000000000003  0.4986128700409920  0.4972257400819852   T   T   T
  0.5000000000000003  0.6687046317473996  0.8374092634948015   T   T   T
  0.5000000000000003  0.0369493054588194  0.1576608851901842   T   T   T
 -0.0000000000000000  0.0469112382024709  0.5938224764049428   T   T   T
  0.5000000000000003  0.1994580150435288  0.4799891311743766   T   T   T
  0.5000000000000003  0.3725041377163354  0.8116404752563895   T   T   T
  0.5000000000000003  0.2458720341409748 -0.0082559317180503   T   T   T
 -0.0000000000000000  0.3300401683577698  0.1600803367155397   T   T   T
  0.5000000000000003  0.6207115797313643  0.1576608851901842   T   T   T
  0.5000000000000003  0.4136369849666744  0.3272739699333501   T   T   T
 -0.0000000000000000  0.4973128372229793  0.4946256744459597   T   T   T
  0.5000000000000003  0.7805311161308467  0.4799891311743766   T   T   T
  0.5000000000000003  0.5828404527575635  0.6656809055151279   T   T   T
 -0.0000000000000000  0.7003249585095497  0.9006499170191017   T   T   T
  0.5000000000000003  0.9391363375400511  0.8116404752563895   T   T   T
