Sr Co O 
 1.0000000000000000
    -3.6604299139876031    0.0000000000000000    0.0000000000000000
     0.0000000000000000   -8.1519187617076252   -0.0000000000000000
     0.0000000000000000    4.0759593808538126   12.0057178890644760
 Sr  Co  O  
   6   6  13
Selective dynamics
Direct
 -0.0000000000000000  0.0136171503581140 -0.0131075987891637   T   T   T
 -0.0000000000000000  0.1876425056849944  0.3438212114880286   T   T   T
 -0.0000000000000000  0.3608726138424574  0.6746574448881232   T   T   T
 -0.0000000000000000  0.4732752508527229 -0.0131075987891637   T   T   T
  0.0000000000000000  0.6561787058030339  0.3438212114880287   T   T   T
  0.0000000000000000  0.8137848310456653  0.6746574448881232   T   T   T
  0.5000000000000004  0.8379439809770354  0.1758879619540707   T   T   T
  0.5000000000000004 -0.0035090415143923  0.4929819169712161   T   T   T
  0.5000000000000004  0.1623356553108195  0.8246713106216401   T   T   T
  0.5000000000000004  0.3296328293776391  0.1592656587552784   T   T   T
  0.5000000000000004  0.5051795299728414  0.5103590599456836   T   T   T
  0.5000000000000004  0.6702512956031910  0.8405025912063834   T   T   T
  0.5000000000000004  0.0434919127367516  0.1451708174770911   T   T   T
  0.5000000000000004  0.9170520774699026  0.3341041549398052   T   T   T
  0.5000000000000004  0.2280198450451234  0.5190182234462689   T   T   T
 -0.0000000000000000  0.1383208742298447  0.7766417484596906   T   T   T
  0.5000000000000004  0.4048638268786398  0.8320621483456172   T   T   T
  0.5000000000000004  0.2530958558895632  0.0061917117791266   T   T   T
  0.5000000000000004  0.6016789047403396  0.1451708174770911   T   T   T
  0.5000000000000004  0.4057818614940375  0.3115637229880758   T   T   T
 -0.0000000000000000  0.4954026103964924  0.4908052207929856   T   T   T
  0.5000000000000004  0.7909983784011456  0.5190182234462689   T   T   T
  0.5000000000000004  0.5879606721364126  0.6759213442728259   T   T   T
 -0.0000000000000000  0.6989295667776065  0.8978591335552144   T   T   T
  0.5000000000000004  0.9271983214669766  0.8320621483456172   T   T   T
