Sr Co O 
 1.0000000000000000
     3.6323941248420342   -0.0000000000000000    0.0000000000000000
    -0.0000000000000000    3.9557888518863051    0.0000000000000000
     0.0000000000000000    0.0000000000000000   20.0182142547039135
 Sr  Co  O  
   5   5  10
Selective dynamics
Direct
  0.0000000000000000  0.0000000000000000 -0.0050503650514419   T   T   T
 -0.0000000000000000  0.0000000000000000  0.2032405489204648   T   T   T
  0.0000000000000000 -0.0000000000000000  0.3967594510795355   T   T   T
 -0.0000000000000000 -0.0000000000000000  0.6050503650514415   T   T   T
  0.0000000000000000  0.0000000000000000  0.8000000000000002   T   T   T
  0.4999999999999997  0.5000000000000001  0.1064655971538686   T   T   T
  0.4999999999999997  0.5000000000000001  0.3000000000000002   T   T   T
  0.4999999999999997  0.5000000000000001  0.4935344028461315   T   T   T
  0.4999999999999997  0.5000000000000001  0.7019705063708306   T   T   T
  0.4999999999999997  0.5000000000000001  0.8980294936291693   T   T   T
  0.4999999999999997 -0.0000000000000000  0.0907431228953447   T   T   T
  0.4999999999999997  0.5000000000000001  0.2040101623472648   T   T   T
  0.4999999999999997  0.0000000000000000  0.3000000000000002   T   T   T
  0.4999999999999997  0.5000000000000001  0.3959898376527354   T   T   T
  0.4999999999999997  0.0000000000000000  0.5092568771046554   T   T   T
  0.0000000000000000  0.5000000000000001  0.6687039703615412   T   T   T
  0.4999999999999997  0.0000000000000000  0.6947725669718487   T   T   T
  0.4999999999999997  0.5000000000000001  0.8000000000000002   T   T   T
 -0.0000000000000000  0.5000000000000001  0.9312960296384590   T   T   T
  0.4999999999999997 -0.0000000000000000  0.9052274330281509   T   T   T
