Sr Co O 
 1.0000000000000000
    -3.7358819866118336    0.0000000000000000    0.0000000000000000
     0.0000000000000000   -7.7902865783676871    0.0000000000000000
     0.0000000000000000    3.8951432891838436   12.5082842518590400
 Sr  Co  O  
   6   6  15
Selective dynamics
Direct
  0.0000000000000000  0.0096407390669205 -0.0169246807578107   T   T   T
  0.0000000000000000  0.1835402470316853  0.3573244215591491   T   T   T
 -0.0000000000000000  0.3275666929344445  0.6647837088119231   T   T   T
 -0.0000000000000000  0.4734345801752688 -0.0169246807578107   T   T   T
 -0.0000000000000000  0.6737841745274631  0.3573244215591491   T   T   T
  0.0000000000000000  0.8372170158774749  0.6647837088119231   T   T   T
  0.5000000000000003  0.8405778230885437  0.1811556461770862   T   T   T
  0.5000000000000003  0.0038583332447155  0.5077166664894345   T   T   T
  0.5000000000000003  0.1611306915251610  0.8222613830503280   T   T   T
  0.5000000000000003  0.3282307526065970  0.1564615052131934   T   T   T
  0.5000000000000003  0.5087031146442922  0.5174062292885865   T   T   T
  0.5000000000000003  0.6647150757711624  0.8294301515423292   T   T   T
  0.5000000000000003  0.0389266095830895  0.1379044593042429   T   T   T
  0.5000000000000003  0.9125953414317060  0.3251906828634108   T   T   T
 -0.0000000000000000 -0.0021446022902249  0.4957107954195535   T   T   T
  0.5000000000000003  0.2560725000443361  0.4994336439701961   T   T   T
  0.5000000000000003  0.0832478230899840  0.6664956461799715   T   T   T
 -0.0000000000000000  0.1681074789110833  0.8362149578221727   T   T   T
  0.5000000000000003  0.4308823747763370  0.8398043236285848   T   T   T
  0.5000000000000003  0.2566909082503062  0.0133818165006118   T   T   T
  0.5000000000000003  0.5989778497211538  0.1379044593042429   T   T   T
  0.5000000000000003  0.3988047824508615  0.2976095649017250   T   T   T
 -0.0000000000000000  0.4977727408504135  0.4955454817008291   T   T   T
  0.5000000000000003  0.7433611439258588  0.4994336439701961   T   T   T
  0.5000000000000003  0.5876991786209702  0.6753983572419424   T   T   T
 -0.0000000000000000  0.6910179782043421  0.8820359564086886   T   T   T
  0.5000000000000003  0.9089219488522432  0.8398043236285848   T   T   T
