Sr Co O 
 1.0000000000000000
    -3.6140989862325625    0.0000000000000000    0.0000000000000000
     0.0000000000000000    3.9885671292468019    8.2911091189914785
     0.0000000000000000    8.0010496484475091   -8.3003415274315984
 Sr  Co  O  
   6   6  12
Selective dynamics
Direct
 -0.0000000000000000 -0.0274269381945879  0.0198135926480453   T   T   T
 -0.0000000000000000  0.3196820685584041  0.7909487374215797   T   T   T
 -0.0000000000000000  0.6792554207098478  0.6905630205886917   T   T   T
 -0.0000000000000000  0.0266446176974220  0.5015212331540546   T   T   T
 -0.0000000000000000  0.3074956750649959  0.2953024380215588   T   T   T
 -0.0000000000000000  0.6396820565183531  0.1501290544478263   T   T   T
  0.5000000000000000  0.3280316577270661  0.0621043168639529   T   T   T
  0.5000000000000000  0.6479018804360941  0.9123435358668898   T   T   T
  0.5000000000000000  0.0267676115098267  0.7957077724647086   T   T   T
  0.5000000000000000  0.3846028710906118  0.5640656160143758   T   T   T
  0.5000000000000000  0.6573520640236623  0.4001985853194640   T   T   T
  0.5000000000000000 -0.0460585105602992  0.2486544745749921   T   T   T
  0.5000000000000000  0.1739226248404384  0.1286073026264947   T   T   T
  0.5000000000000000  0.4628241370035012 -0.0272276631088054   T   T   T
  0.5000000000000000  0.5036258162577556  0.7489925931305688   T   T   T
  0.5000000000000000  0.8243044777583778  0.8468336636113141   T   T   T
 -0.0000000000000000  0.0971279085854232  0.8640778287293275   T   T   T
  0.5000000000000000  0.1150349208785686  0.6639132123078531   T   T   T
 -0.0000000000000000  0.3054801469988738  0.5191822691930278   T   T   T
  0.5000000000000000  0.5874844718374016  0.5284051656116368   T   T   T
  0.5000000000000000  0.4948184653003899  0.2390101452676333   T   T   T
  0.5000000000000000  0.8411230132225136  0.3718281303810771   T   T   T
 -0.0000000000000000  0.0307489590015603  0.2727091688707345   T   T   T
  0.5000000000000000  0.7862413513814676  0.0789825072172436   T   T   T
