Sr Co O 
 1.0000000000000000
    -3.7505035448578874    0.0000000000000000    0.0000000000000000
     0.0000000000000000   -7.9634581990511286   -0.0000000000000000
     0.0000000000000000    3.9817290995255643   11.7454922999323106
 Sr  Co  O  
   6   6  15
Selective dynamics
Direct
 -0.0000000000000000  0.0088186479740121 -0.0039645796421366   T   T   T
 -0.0000000000000000  0.1794498942828150  0.3372979129754701   T   T   T
 -0.0000000000000000  0.3333333333333328  0.6666666666666671   T   T   T
 -0.0000000000000000  0.4872167723838516 -0.0039645796421366   T   T   T
  0.0000000000000000  0.6578480186926549  0.3372979129754701   T   T   T
 -0.0000000000000000  0.8333333333333329  0.6666666666666671   T   T   T
  0.4999999999999999  0.8333333333333345  0.1666666666666668   T   T   T
  0.4999999999999999  0.0004312502834819  0.5008625005669658   T   T   T
  0.4999999999999999  0.1655515840052721  0.8311031680105473   T   T   T
  0.4999999999999999  0.3333333333333336  0.1666666666666668   T   T   T
  0.4999999999999999  0.5011150826613934  0.5022301653227875   T   T   T
  0.4999999999999999  0.6662354163831825  0.8324708327663667   T   T   T
 -0.0000000000000000  0.8333333333333345  0.1666666666666668   T   T   T
  0.4999999999999999  0.0875924318647042  0.1666666666666668   T   T   T
  0.0000000000000000 -0.0219511787021478  0.4560976425957063   T   T   T
  0.4999999999999999  0.2268809562241690  0.4887337112766387   T   T   T
  0.4999999999999999  0.0830638738903981  0.6661277477807981   T   T   T
 -0.0000000000000000  0.1696917157793131  0.8393834315586293   T   T   T
  0.4999999999999999  0.4397857104424965  0.8445996220566956   T   T   T
  0.4999999999999999  0.2573708451792231  0.0147416903584458   T   T   T
  0.4999999999999999  0.5790742348019631  0.1666666666666668   T   T   T
  0.4999999999999999  0.4092958214874436  0.3185916429748879   T   T   T
 -0.0000000000000000  0.4969749508873522  0.4939499017747050   T   T   T
  0.4999999999999999  0.7618527550524697  0.4887337112766389   T   T   T
  0.4999999999999999  0.5836027927762677  0.6672055855525361   T   T   T
 -0.0000000000000000  0.6886178453688128  0.8772356907376275   T   T   T
  0.4999999999999999  0.9048139116141971  0.8445996220566953   T   T   T
