Sr Co O 
 1.0000000000000000
    -3.6190169516547068    0.0000000000000000    0.0000000000000000
     0.0000000000000000   -8.0323240902086557    0.0010761420619129
     0.0000000000000000    4.0160020115370809   12.4008267672570796
 Sr  Co  O  
   6   6  13
Selective dynamics
Direct
 -0.0000000000000000 -0.0000432961401178 -0.0112974366769327   T   T   T
 -0.0000000000000000  0.1661127354068087  0.3336723518128321   T   T   T
 -0.0000000000000000  0.3466104001458051  0.6750534488551825   T   T   T
 -0.0000000000000000  0.4867309964436217 -0.0155685020976331   T   T   T
 -0.0000000000000000  0.6700982352043033  0.3461018964754937   T   T   T
 -0.0000000000000000  0.8481538905212699  0.6664386826702438   T   T   T
  0.4999999999999998  0.8304508739162473  0.1807809298406263   T   T   T
  0.4999999999999998  0.0043034225965201  0.5017085603686778   T   T   T
  0.4999999999999998  0.1718397419754712  0.8323559064457985   T   T   T
  0.4999999999999998  0.2907763637331989  0.1511711128901380   T   T   T
  0.4999999999999998  0.5213070512966737  0.5134723009935587   T   T   T
  0.4999999999999998  0.6736150602174631  0.8278547552571972   T   T   T
 -0.0000000000000000  0.7196099884402662  0.1564568502355391   T   T   T
  0.4999999999999998  0.0439618107011314  0.1342682272829671   T   T   T
  0.4999999999999998  0.9442798905901428  0.3388235582521726   T   T   T
 -0.0000000000000000  0.0797507096623779  0.5096313023215836   T   T   T
  0.4999999999999998  0.0971302416667166  0.6820517649533898   T   T   T
  0.4999999999999998  0.4022887070175249  0.8369673726504464   T   T   T
  0.4999999999999998  0.2707144540987365  0.0035359898463382   T   T   T
  0.4999999999999998  0.4229565209957773  0.2894782353916134   T   T   T
 -0.0000000000000000  0.4432607417345332  0.4864685082630429   T   T   T
  0.4999999999999998  0.7580877977432274  0.5012914297780001   T   T   T
  0.4999999999999998  0.5818119145053654  0.6702964979411760   T   T   T
 -0.0000000000000000  0.6961129567990834  0.8840828553615089   T   T   T
  0.4999999999999998  0.9467455614989867  0.8382367615522062   T   T   T
