Sr Co O 
 1.0000000000000000
    -3.5724189898096901    0.0000000000000000    0.0000000000000000
     0.0000000000000000    4.0121157002198338    8.2190199592920390
     0.0000000000000000    7.9553036326443225   -8.1818544013191339
 Sr  Co  O  
   6   6  12
Selective dynamics
Direct
 -0.0000000000000000 -0.0163630141603683  0.0157015174289267   T   T   T
 -0.0000000000000000  0.3456099243911208  0.8268297485950454   T   T   T
 -0.0000000000000000  0.6561269088981986  0.6589433659506008   T   T   T
 -0.0000000000000000 -0.0007557476015139  0.5181073631791890   T   T   T
 -0.0000000000000000  0.3573113214115938  0.3372803063125107   T   T   T
 -0.0000000000000000  0.6673995701152403  0.1650637848274586   T   T   T
  0.4999999999999998  0.3536390091007868  0.0763227756990913   T   T   T
  0.4999999999999998  0.6710236104624947  0.9161841101074484   T   T   T
  0.4999999999999998 -0.0260497674309177  0.7515894562026094   T   T   T
  0.4999999999999998  0.3513960054815251  0.5838110137059279   T   T   T
  0.4999999999999998  0.6720000383627234  0.4162155662193387   T   T   T
  0.4999999999999998 -0.0159915213754351  0.2555917453810014   T   T   T
 -0.0000000000000000  0.2588042592600067  0.0377695265625997   T   T   T
  0.4999999999999998  0.5099468567760144 -0.0124666215186097   T   T   T
  0.4999999999999998  0.5219663693814451  0.7533607290277317   T   T   T
  0.4999999999999998  0.8520137198642460  0.8516545520205751   T   T   T
  0.4999999999999998  0.8213961919109041  0.5830052739329120   T   T   T
  0.4999999999999998  0.1514161642595778  0.7158754498514011   T   T   T
 -0.0000000000000000  0.2761237361331151  0.5411407850328011   T   T   T
  0.4999999999999998  0.5085563310346501  0.4861887172696264   T   T   T
  0.4999999999999998  0.5114559943792222  0.2519925891477436   T   T   T
  0.4999999999999998  0.8437829388121444  0.3539932398509097   T   T   T
 -0.0000000000000000  0.0724722885568942  0.2527902431829124   T   T   T
  0.4999999999999998  0.8233855288386477  0.0797214248012011   T   T   T
