Sr Co O 
 1.0000000000000000
    -3.6908929205707044    0.0000000000000000    0.0000000000000000
     0.0000000000000000   -7.9260801276995370    0.0884315871356943
     0.0000000000000000    3.8023150158024768   13.2397844222472685
 Sr  Co  O  
   6   6  13
Selective dynamics
Direct
 -0.0000000000000000  0.0010017731857301 -0.0432592934788608   T   T   T
 -0.0000000000000000  0.1937227064708679  0.3647202315617673   T   T   T
 -0.0000000000000000  0.3127666465748292  0.6479218058848454   T   T   T
 -0.0000000000000000  0.4653619070354165 -0.0094940657499118   T   T   T
 -0.0000000000000000  0.6702432910832601  0.3756813928080983   T   T   T
 -0.0000000000000000  0.8238346930929548  0.6525829908980303   T   T   T
  0.5000000000000000  0.7938091939444035  0.1933323617070562   T   T   T
  0.5000000000000000  0.0061392737273210  0.5109764860281760   T   T   T
  0.5000000000000000  0.1479100918543085  0.8050293576856139   T   T   T
  0.5000000000000000  0.3709373084297835  0.1663489331759633   T   T   T
  0.5000000000000000  0.5059837131281177  0.5267094714778040   T   T   T
  0.5000000000000000  0.6693097156809472  0.8236458221296368   T   T   T
  0.5000000000000000  0.9624900927853451  0.3025548469828038   T   T   T
 -0.0000000000000000 -0.0115167201999205  0.4866168171728138   T   T   T
  0.5000000000000000  0.2532460326416441  0.5021201903880943   T   T   T
  0.5000000000000000  0.0813394119395118  0.6605394979580036   T   T   T
 -0.0000000000000000  0.2260113182338049  0.8380104682179733   T   T   T
  0.5000000000000000  0.2160767002795721  0.0411862095173620   T   T   T
  0.5000000000000000  0.5833494549241828  0.1066103916311536   T   T   T
  0.5000000000000000  0.4246155547012447  0.3024521825027331   T   T   T
 -0.0000000000000000  0.4979979882846845  0.5040257637432789   T   T   T
  0.5000000000000000  0.7466162527631282  0.5111954450492810   T   T   T
  0.5000000000000000  0.5574133367975707  0.6804033571402396   T   T   T
 -0.0000000000000000  0.6656723842111643  0.8861762431104961   T   T   T
  0.5000000000000000  0.9190011046422091  0.8305797310277345   T   T   T
