Sr Co O 
 1.0000000000000000
    -3.7188412867669478    0.0000000000000000   -0.0000000000000000
     0.0000000000000000   -8.1419859035168241    0.0000000000000000
     0.0000000000000000    4.0709929517584120   11.7617531713953394
 Sr  Co  O  
   6   6  15
Selective dynamics
Direct
  0.0000000000000000  0.0145742484978047 -0.0129024679513667   T   T   T
 -0.0000000000000000  0.1941433831158378  0.3462358012846998   T   T   T
  0.0000000000000000  0.3313043554363316  0.6671773831099312   T   T   T
  0.0000000000000000  0.4704134971729091 -0.0045182608121762   T   T   T
 -0.0000000000000000  0.6415984246517519  0.3378515941455093   T   T   T
 -0.0000000000000000  0.8307936389930659  0.6661559502234015   T   T   T
  0.4999999999999998  0.8334176778730168  0.1666666666666667   T   T   T
  0.4999999999999998 -0.0057070319740429  0.4981181676449574   T   T   T
  0.4999999999999998  0.1646449389880854  0.8273005827079205   T   T   T
  0.4999999999999998  0.3465644837165675  0.1666666666666667   T   T   T
  0.4999999999999998  0.5040110229468316  0.5060327506254133   T   T   T
  0.4999999999999998  0.6628414670476660  0.8352151656883767   T   T   T
 -0.0000000000000000  0.9103714643661691  0.1666666666666667   T   T   T
  0.0000000000000000 -0.0328498933165067  0.4467174148845466   T   T   T
  0.4999999999999998  0.2223028355526268  0.4933240805863713   T   T   T
  0.4999999999999998  0.0768123807913133  0.6639301989680996   T   T   T
  0.0000000000000000  0.1648053159193411  0.8315782353435622   T   T   T
  0.4999999999999998  0.4354346457218162  0.8423832023621918   T   T   T
  0.4999999999999998  0.2423197891939129  0.0057201238076473   T   T   T
  0.0000000000000000  0.3111562614284968  0.1666666666666667   T   T   T
  0.4999999999999998  0.6058754902315580  0.1666666666666667   T   T   T
  0.4999999999999998  0.4032663320529318  0.3276132095256857   T   T   T
 -0.0000000000000000  0.4998937472424447  0.5017550979897704   T   T   T
  0.4999999999999998  0.7597181100262914  0.4909501309711407   T   T   T
  0.4999999999999998  0.5795488484898801  0.6694031343652335   T   T   T
 -0.0000000000000000  0.6870993584656129  0.8866159184487862   T   T   T
  0.4999999999999998  0.8956454216329212  0.8400092527469600   T   T   T
