Sr Co O 
 1.0000000000000000
    -3.7572722916336212    0.0000000000000000    0.0000000000000000
     0.0000000000000000   -8.0759448843313244   -0.0000000000000000
     0.0000000000000000    4.0379724421656622   11.4673503738341811
 Sr  Co  O  
   6   6  12
Selective dynamics
Direct
  0.0000000000000000 -0.0004421612491079 -0.0177747989573275   T   T   T
 -0.0000000000000000  0.1740740835450058  0.3398229038266212   T   T   T
 -0.0000000000000000  0.3415790444163818  0.6696909743603671   T   T   T
 -0.0000000000000000  0.4826673622917803 -0.0177747989573275   T   T   T
  0.0000000000000000  0.6657488202816141  0.3398229038266212   T   T   T
  0.0000000000000000  0.8281119299439830  0.6696909743603671   T   T   T
  0.4999999999999999  0.8349630278352657  0.1699260556705328   T   T   T
  0.4999999999999999  0.0038340052917590  0.5076680105835187   T   T   T
  0.4999999999999999  0.1630446637168108  0.8260893274336232   T   T   T
  0.4999999999999999  0.3340356496028918  0.1680712992057840   T   T   T
  0.4999999999999999  0.4984795373277262  0.4969590746554536   T   T   T
  0.4999999999999999  0.6644307489136118  0.8288614978272257   T   T   T
 -0.0000000000000000  0.8561812108480156  0.2123624216960327   T   T   T
  0.4999999999999999  0.0917443679580984  0.1350376533449883   T   T   T
 -0.0000000000000000  0.0127315618597694  0.5254631237195395   T   T   T
  0.4999999999999999  0.2470494424917383  0.4907118794767372   T   T   T
 -0.0000000000000000  0.1685539076883025  0.8371078153766067   T   T   T
  0.4999999999999999  0.3966730446685460  0.8250877233699109   T   T   T
  0.4999999999999999  0.5432932853868894  0.1350376533449883   T   T   T
  0.4999999999999999  0.4167879324791222  0.3335758649582456   T   T   T
  0.4999999999999999  0.7436624369849980  0.4907118794767372   T   T   T
  0.4999999999999999  0.5778060097168446  0.6556120194336904   T   T   T
 -0.0000000000000000  0.6932420697009947  0.8864841394019914   T   T   T
  0.4999999999999999  0.9284146787013621  0.8250877233699109   T   T   T
