Sr Co O 
 1.0000000000000000
    -3.6919794374583987    0.0000000000000000    0.0000000000000000
     0.0000000000000000   -8.4095782466397981   -0.1449913613807714
     0.0000000000000000    4.4312081843991562   12.1420861340796460
 Sr  Co  O  
   6   6  12
Selective dynamics
Direct
 -0.0000000000000000 -0.0052608155953446  0.0075852206674103   T   T   T
 -0.0000000000000000  0.1574426264578628  0.3324510947142916   T   T   T
 -0.0000000000000000  0.3728907812308822  0.6998803733191943   T   T   T
 -0.0000000000000000  0.5334999918416707 -0.0010626863723364   T   T   T
 -0.0000000000000000  0.6262690686000988  0.3285670106985475   T   T   T
 -0.0000000000000000  0.8280210919406599  0.6359485050585540   T   T   T
  0.5000000000000004  0.8243512425748609  0.1920956885732499   T   T   T
  0.5000000000000004 -0.0082031659717650  0.4964328873023447   T   T   T
  0.5000000000000004  0.1609046095934460  0.8500228709829316   T   T   T
  0.5000000000000004  0.3354513420793947  0.1484397568942579   T   T   T
  0.5000000000000004  0.5133387619842520  0.5068617412551131   T   T   T
  0.5000000000000004  0.7141174541186799  0.8116525309743358   T   T   T
 -0.0000000000000000  0.8551245377486144  0.1419726626924719   T   T   T
  0.5000000000000004  0.9882927384463729  0.3440192112312964   T   T   T
 -0.0000000000000000  0.0706538446921617  0.5623762057469200   T   T   T
  0.5000000000000004  0.3777178993195502  0.8493656390911244   T   T   T
  0.5000000000000004  0.1669879257383945 -0.0006323238549771   T   T   T
 -0.0000000000000000  0.3058381314882954  0.1993781321468590   T   T   T
  0.5000000000000004  0.5760164931943758  0.1582760753185121   T   T   T
 -0.0000000000000000  0.4517445067491637  0.4581714286413326   T   T   T
  0.5000000000000004  0.7384150362759774  0.4746967508129329   T   T   T
  0.5000000000000004  0.5390602544313414  0.6609996355772016   T   T   T
 -0.0000000000000000  0.6990953496471424  0.8702168539087628   T   T   T
  0.5000000000000004  0.9282303919320175  0.7722846795993064   T   T   T
