Sr Co O 
 1.0000000000000000
    -3.8137005094987790    0.0000000000000000    0.0000000000000000
     0.0000000000000000   -8.0026729035101845    0.0000000000000000
     0.0000000000000000    4.0013364517550922   11.5486859142628617
 Sr  Co  O  
   6   6  12
Selective dynamics
Direct
  0.0000000000000000 -0.0026966596684533  0.0135806748476463   T   T   T
 -0.0000000000000000  0.1693633263351197  0.3197526584856873   T   T   T
  0.0000000000000000  0.3538619658992240  0.6666666666666669   T   T   T
  0.0000000000000000  0.5162773345160996  0.0135806748476463   T   T   T
 -0.0000000000000000  0.6503893321505674  0.3197526584856873   T   T   T
 -0.0000000000000000  0.8128047007674416  0.6666666666666669   T   T   T
  0.5000000000000002  0.8366151519637132  0.1732303039274249   T   T   T
  0.5000000000000002  0.0010769150377726  0.5021538300755466   T   T   T
  0.5000000000000002  0.1655897516288923  0.8311795032577868   T   T   T
  0.5000000000000002  0.3300515147029544  0.1601030294059087   T   T   T
  0.5000000000000002  0.4967936719878370  0.4935873439756746   T   T   T
  0.5000000000000002  0.6698729946788282  0.8397459893576583   T   T   T
  0.0000000000000000  0.8385126719006287  0.1770253438012562   T   T   T
  0.5000000000000002  0.0833333333333332  0.1666666666666668   T   T   T
  0.5000000000000002  0.2030493797645344  0.4655523006780031   T   T   T
  0.5000000000000002  0.0833333333333328  0.6666666666666669   T   T   T
  0.5000000000000002  0.4041637457531980  0.8677810326553311   T   T   T
 -0.0000000000000000  0.3281539947660387  0.1563079895320773   T   T   T
  0.5000000000000002  0.5833333333333336  0.1666666666666668   T   T   T
  0.0000000000000000  0.4785945437736216  0.4571890875472440   T   T   T
  0.5000000000000002  0.7625029209134684  0.4655523006780029   T   T   T
  0.5000000000000002  0.5833333333333330  0.6666666666666669   T   T   T
 -0.0000000000000000  0.6880721228930441  0.8761442457860900   T   T   T
  0.5000000000000002  0.9636172869021324  0.8677810326553311   T   T   T
