Sr Co O 
 1.0000000000000000
    -3.6476434719534376    0.0000000000000000    0.0000000000000000
     0.0000000000000000   -7.8229197029337065   -0.3421554322534013
     0.0000000000000000    4.4207695341705096   13.3858516988107574
 Sr  Co  O  
   6   6  12
Selective dynamics
Direct
 -0.0000000000000000 -0.0127965065226866 -0.0153954524218325   T   T   T
 -0.0000000000000000  0.1602350321965233  0.3152751986565747   T   T   T
 -0.0000000000000000  0.3152448966589360  0.6709482227815291   T   T   T
 -0.0000000000000000  0.5143686377761403 -0.0202740379415449   T   T   T
 -0.0000000000000000  0.6088530176734894  0.3451957502791109   T   T   T
 -0.0000000000000000  0.8745939360792746  0.6852855780722625   T   T   T
  0.4999999999999988  0.7611323074129950  0.1569483562670246   T   T   T
  0.4999999999999988 -0.0096514299927903  0.4876517348427188   T   T   T
  0.4999999999999988  0.1808511281157386  0.8531542711999794   T   T   T
  0.4999999999999988  0.3434853866837955  0.1458685044410577   T   T   T
  0.4999999999999988  0.5227026794800114  0.5193487770551873   T   T   T
  0.4999999999999988  0.6616905463474089  0.8025358899609174   T   T   T
  0.4999999999999988  0.8186765244418343  0.0474297171024642   T   T   T
 -0.0000000000000000 -0.0239756513646381  0.4305882162554637   T   T   T
  0.4999999999999988  0.0529869794549627  0.6280369329138047   T   T   T
 -0.0000000000000000  0.2251281349139172  0.8201626216772350   T   T   T
  0.4999999999999988  0.3186276983397777  0.0023385480343787   T   T   T
 -0.0000000000000000  0.2534261078173976  0.1652566002947237   T   T   T
  0.4999999999999988  0.6221882613614862  0.2319858468626833   T   T   T
  0.4999999999999988  0.3692562187376202  0.3730433812789131   T   T   T
 -0.0000000000000000  0.6272214240760774  0.5209161018953271   T   T   T
  0.4999999999999988  0.5150223459007996  0.6560786052544315   T   T   T
 -0.0000000000000000  0.6258906367764994  0.8406053139791753   T   T   T
  0.4999999999999988  0.9248419474197405  0.8370154645175689   T   T   T
