Sr Co O 
 1.0000000000000000
     3.6194638991161026   -0.0000000000000000    0.0000000000000000
    -0.0000000000000000    3.9141836421260705    0.0000000000000000
     0.0000000000000000    0.0000000000000000   16.0208100783815333
 Sr  Co  O  
   4   4   9
Selective dynamics
Direct
 -0.0000000000000000  0.0000000000000000 -0.0055913404190443   T   T   T
 -0.0000000000000000  0.0000000000000000  0.2517043388741240   T   T   T
  0.0000000000000000  0.0000000000000000  0.4982956611258754   T   T   T
  0.0000000000000000 -0.0000000000000000  0.7555913404190441   T   T   T
  0.5000000000000001  0.4999999999999996  0.1313208528121840   T   T   T
  0.5000000000000001  0.4999999999999996  0.3749999999999999   T   T   T
  0.5000000000000001  0.4999999999999996  0.6186791471878154   T   T   T
  0.5000000000000001  0.4999999999999996  0.8749999999999998   T   T   T
  0.5000000000000001  0.4999999999999996  0.0178571261352159   T   T   T
  0.5000000000000001 -0.0000000000000000  0.1341873323701720   T   T   T
  0.5000000000000001  0.4999999999999996  0.2536177454467796   T   T   T
  0.5000000000000001  0.0000000000000000  0.3749999999999999   T   T   T
  0.5000000000000001  0.4999999999999996  0.4963822545532202   T   T   T
  0.5000000000000001  0.0000000000000000  0.6158126676298283   T   T   T
  0.5000000000000001  0.4999999999999996  0.7321428738647838   T   T   T
  0.0000000000000000  0.4999999999999996  0.8749999999999998   T   T   T
  0.5000000000000001  0.0000000000000000  0.8749999999999998   T   T   T
