Sr Co O 
 1.0000000000000000
    -3.7128017305254617    0.0000000000000000    0.0000000000000000
     0.0000000000000000   -8.0902177732213367   -0.6927700100014289
     0.0000000000000000    5.0948868273846477   12.9059222732860501
 Sr  Co  O  
   6   6  12
Selective dynamics
Direct
 -0.0000000000000000  0.1042211364967459 -0.0330222857963862   T   T   T
 -0.0000000000000000  0.1322913575705216  0.3484244444602733   T   T   T
 -0.0000000000000000  0.3574715517052431  0.6782266496724270   T   T   T
 -0.0000000000000000  0.5549841242708182 -0.0270378414092505   T   T   T
 -0.0000000000000000  0.6113801651113606  0.3771563416389852   T   T   T
 -0.0000000000000000  0.8449599979683187  0.6674422158060824   T   T   T
  0.5000000000000009  0.6687314033530700  0.2017923265448650   T   T   T
  0.5000000000000009 -0.0171908957347561  0.4989479923620350   T   T   T
  0.5000000000000009  0.2080186037430437  0.8085202012728255   T   T   T
  0.5000000000000009  0.3527437097622491  0.1748619488467338   T   T   T
  0.5000000000000009  0.4701075496358220  0.5284584506099314   T   T   T
  0.5000000000000009  0.7313464593772764  0.8413240388444819   T   T   T
  0.5000000000000009  0.8596120846172219  0.3322536735887452   T   T   T
  0.5000000000000009  0.2025937776959663  0.4887613078314666   T   T   T
  0.5000000000000009  0.1055894981467336  0.6495042868795088   T   T   T
 -0.0000000000000000  0.2313424300614575  0.8375233952679701   T   T   T
  0.5000000000000009  0.4695769237666104  0.8375818300891326   T   T   T
  0.5000000000000009  0.4458447430009039  0.0748651171311523   T   T   T
  0.5000000000000009  0.2950214456468130  0.2820546214256296   T   T   T
 -0.0000000000000000  0.4687524014560392  0.4957713623144298   T   T   T
  0.5000000000000009  0.7583237217276066  0.5043059664995394   T   T   T
  0.5000000000000009  0.6157968534708473  0.6826004740720764   T   T   T
 -0.0000000000000000  0.7860225761456602  0.9123091476900910   T   T   T
  0.5000000000000009  0.9924584876644490  0.8373742753508178   T   T   T
