Sr Co O 
 1.0000000000000000
    -3.5838743913953617    0.0000000000000000    0.0000000000000000
     0.0000000000000000   -7.7503920072802144   -0.0198690932749429
     0.0000000000000000    3.9038031048472486   12.7042576488712768
 Sr  Co  O  
   6   6  12
Selective dynamics
Direct
 -0.0000000000000000 -0.0037590742455948 -0.0140865908171855   T   T   T
 -0.0000000000000000  0.1804726479347773  0.3442514813013203   T   T   T
 -0.0000000000000000  0.3495990373984857  0.6504380229347961   T   T   T
 -0.0000000000000000  0.5223458021144677 -0.0012719426335231   T   T   T
 -0.0000000000000000  0.6964697938805242  0.3569843655233187   T   T   T
 -0.0000000000000000  0.8412520029341517  0.6665708059679740   T   T   T
  0.4999999999999994  0.8086547543512058  0.1766696096943861   T   T   T
  0.4999999999999994  0.0207620514800327  0.5020648115686182   T   T   T
  0.4999999999999994  0.1654974974054882  0.8201774287595471   T   T   T
  0.4999999999999994  0.3280204613697245  0.1887584043040159   T   T   T
  0.4999999999999994  0.5181670776099890  0.4987376398382281   T   T   T
  0.4999999999999994  0.6617403700628047  0.8161242592144926   T   T   T
  0.4999999999999994  0.8007174900516522  0.0293867930872996   T   T   T
 -0.0000000000000000  0.7023351294510731  0.1811285074138646   T   T   T
  0.4999999999999994  0.9427323301990225  0.3418995081468813   T   T   T
  0.4999999999999994  0.2645806805869337  0.4953874730404091   T   T   T
  0.4999999999999994  0.1238390000392336  0.6724914860466746   T   T   T
  0.4999999999999994  0.2860020925113374 -0.0396480552693264   T   T   T
 -0.0000000000000000  0.2367994477375730  0.1623421996085586   T   T   T
  0.4999999999999994  0.4476012365539934  0.3435323673435043   T   T   T
  0.4999999999999994  0.7784595679761059  0.5089998092995669   T   T   T
  0.4999999999999994  0.5873908366279942  0.6470041398709793   T   T   T
 -0.0000000000000000  0.5698459211000164  0.8265156956202689   T   T   T
  0.4999999999999994  0.9204738454099759  0.8255419957350577   T   T   T
