Sr Co O 
 1.0000000000000000
    -3.6955966014954607    0.0000000000000000    0.0000000000000000
     0.0000000000000000   -8.4484443858739358   -0.0329580422284813
     0.0000000000000000    4.2690591996020393   11.8258537545990983
 Sr  Co  O  
   6   6  12
Selective dynamics
Direct
 -0.0000000000000000  0.0078480403673832 -0.0016570597889774   T   T   T
 -0.0000000000000000  0.1949019772085654  0.3378907992557611   T   T   T
 -0.0000000000000000  0.3731097664467279  0.6903240375568469   T   T   T
 -0.0000000000000000  0.5583759452777090  0.0436043968078620   T   T   T
 -0.0000000000000000  0.6391004590115800  0.3603279065142315   T   T   T
 -0.0000000000000000  0.8038462768855846  0.6960466531802091   T   T   T
  0.4999999999999992  0.8667301873297483  0.2203442466128256   T   T   T
  0.4999999999999992 -0.0093718370220957  0.5211806759652663   T   T   T
  0.4999999999999992  0.1893758957301477  0.8270348274109240   T   T   T
  0.4999999999999992  0.3711694874802854  0.1749742075001377   T   T   T
  0.4999999999999992  0.5096184529171480  0.5185153458457276   T   T   T
  0.4999999999999992  0.6408536863740638  0.8582354365303625   T   T   T
 -0.0000000000000000 -0.0928312216154222  0.1646926047555893   T   T   T
  0.4999999999999992  0.0229278564214986  0.3815594029549216   T   T   T
  0.4999999999999992  0.1616168763446593  0.6652858642750182   T   T   T
  0.4999999999999992  0.4232140191833803  0.8974158174924592   T   T   T
 -0.0000000000000000  0.3053614663190251  0.1199111767962646   T   T   T
  0.4999999999999992  0.6244981690561469  0.1982350142905741   T   T   T
  0.4999999999999992  0.4083691664967860  0.3371438427428555   T   T   T
 -0.0000000000000000  0.4381012266145701  0.5166443364409022   T   T   T
  0.4999999999999992  0.7666463725278133  0.5225375329441031   T   T   T
  0.4999999999999992  0.5978529806506101  0.6953134893059555   T   T   T
 -0.0000000000000000  0.7045161575559509  0.8939184531873514   T   T   T
  0.4999999999999992  0.9941687091374832  0.8605210567235079   T   T   T
