Sr Co O 
 1.0000000000000000
    -3.7302260979886732    0.0000000000000000    0.0000000000000000
     0.0000000000000000   -7.5701661059390908    0.0000000000000000
     0.0000000000000000    3.7850830529695454   12.1259460324709103
 Sr  Co  O  
   6   6  13
Selective dynamics
Direct
 -0.0000000000000000 -0.0053593175282257 -0.0107186350564513   T   T   T
 -0.0000000000000000  0.1660932825930860  0.3321865651861723   T   T   T
 -0.0000000000000000  0.3299000372582147  0.6598000745164303   T   T   T
 -0.0000000000000000  0.5024721809718297  0.0049443619436590   T   T   T
 -0.0000000000000000  0.6679029995651421  0.3358059991302837   T   T   T
 -0.0000000000000000  0.8383593016418662  0.6767186032837335   T   T   T
  0.4999999999999997  0.8351229969662245  0.1700361048325777   T   T   T
  0.4999999999999997 -0.0022261316367848  0.4968613012791179   T   T   T
  0.4999999999999997  0.1698372958967183  0.8323363188105976   T   T   T
  0.4999999999999997  0.3349131078663536  0.1700361048325777   T   T   T
  0.4999999999999997  0.4990874329159019  0.4968613012791179   T   T   T
  0.4999999999999997  0.6624990229138779  0.8323363188105976   T   T   T
  0.4999999999999997  0.7485303839798328  0.0142023403771788   T   T   T
 -0.0000000000000000  0.8400902150978701  0.1744540404686843   T   T   T
  0.4999999999999997  0.9132277414645914  0.3342464943469091   T   T   T
  0.4999999999999997  0.2445297306371432  0.4890594612742871   T   T   T
  0.4999999999999997  0.0831983244065614  0.6523263688309527   T   T   T
  0.0000000000000000  0.2204441062492773  0.8319535456195999   T   T   T
  0.4999999999999997  0.2656719563973468  0.0142023403771788   T   T   T
  0.0000000000000000  0.3343638253708142  0.1744540404686843   T   T   T
  0.4999999999999997  0.4210187528823179  0.3342464943469092   T   T   T
  0.4999999999999997  0.7487840386046638  0.4975680772093279   T   T   T
  0.4999999999999997  0.5691280444243906  0.6523263688309527   T   T   T
 -0.0000000000000000  0.6115094393703213  0.8319535456195999   T   T   T
  0.4999999999999997  0.9175679093953503  0.8351358187907013   T   T   T
