Sr Co O 
 1.0000000000000000
    -3.6615121692786783    0.0000000000000000    0.0000000000000000
     0.0000000000000000   -8.4742131924029600   -0.0724126848800073
     0.0000000000000000    4.3533294552434123   12.5201402177750101
 Sr  Co  O  
   6   6  12
Selective dynamics
Direct
 -0.0000000000000000  0.0141735096734486 -0.0461599087537017   T   T   T
 -0.0000000000000000  0.2079543670759760  0.3485629887985953   T   T   T
 -0.0000000000000000  0.3616735917941142  0.6892365987749968   T   T   T
 -0.0000000000000000  0.4754928044789274 -0.0211529507167763   T   T   T
 -0.0000000000000000  0.6354005071491684  0.3717454897422888   T   T   T
 -0.0000000000000000  0.8039794730016921  0.6644954491222701   T   T   T
  0.4999999999999996  0.7965486339804261  0.2145439746385699   T   T   T
  0.4999999999999996  0.0010340582340984  0.4757929929755300   T   T   T
  0.4999999999999996  0.1488199901362000  0.8017130147464766   T   T   T
  0.4999999999999996  0.3713412969271385  0.1583860033186170   T   T   T
  0.4999999999999996  0.4671723232041078  0.5323696830744512   T   T   T
  0.4999999999999996  0.6796467932220721  0.8418136700419238   T   T   T
  0.4999999999999996  0.9932662770309391  0.3215563423085903   T   T   T
  0.4999999999999996  0.2289836134201442  0.5364461176388345   T   T   T
 -0.0000000000000000  0.1219175971949153  0.7594217450836283   T   T   T
  0.4999999999999996  0.3894620543597144  0.8354662774925484   T   T   T
  0.4999999999999996  0.2265495260280390  0.0221919924383601   T   T   T
  0.4999999999999996  0.5854552704596057  0.1257216455311129   T   T   T
  0.4999999999999996  0.3947067392985902  0.3000385920017388   T   T   T
 -0.0000000000000000  0.4890394752422850  0.4954718972573134   T   T   T
  0.4999999999999996  0.8020513225375190  0.5000006548554585   T   T   T
  0.4999999999999996  0.5911286329951705  0.6847330815419057   T   T   T
 -0.0000000000000000  0.7062881140417354  0.9054100653814579   T   T   T
  0.4999999999999996  0.9245806420855859  0.8155278535205078   T   T   T
