Sr Co O 
 1.0000000000000000
    -3.6268832567709608    0.0000000000000000    0.0000000000000000
     0.0000000000000000    4.2414883031942603    3.8969933319138366
     0.0000000000000000    8.5261682105361469  -11.7153305429889230
 Sr  Co  O  
   5   5  11
Selective dynamics
Direct
 -0.0000000000000000 -0.0244278375887355  0.0120508193048580   T   T   T
 -0.0000000000000000  0.2950693421166949  0.7789962760683499   T   T   T
 -0.0000000000000000  0.7582465875822377  0.6024205767028019   T   T   T
 -0.0000000000000000  0.2577246064743133  0.4030797393898442   T   T   T
 -0.0000000000000000  0.6973639771943740  0.2188288195010215   T   T   T
  0.5000000000000002  0.4835656965680635 -0.0041727533014701   T   T   T
  0.5000000000000002  0.8242632663796555  0.7935520815842302   T   T   T
  0.5000000000000002  0.2817784421048559  0.6013258809067482   T   T   T
  0.5000000000000002  0.7405203568868048  0.4039439226433897   T   T   T
  0.5000000000000002  0.1951955068416098  0.2136157638529138   T   T   T
 -0.0000000000000000  0.3877899782241174 -0.0415014078496453   T   T   T
 -0.0000000000000000  0.8813247273474611  0.8427996686860354   T   T   T
  0.5000000000000002  0.5298582673369345  0.7132678660098135   T   T   T
  0.5000000000000002  0.0346567955487044  0.6910755523550803   T   T   T
 -0.0000000000000000  0.2204251043273233  0.5799874668672497   T   T   T
  0.5000000000000002  0.5056491089692740  0.5053890060106776   T   T   T
 -0.0000000000000000  0.8106397503276587  0.4302132988765376   T   T   T
  0.5000000000000002  0.4814206725764337  0.3014110928915680   T   T   T
  0.5000000000000002  0.9747322047323881  0.3070158524021162   T   T   T
 -0.0000000000000000  0.2070855744285595  0.1665953338988472   T   T   T
  0.5000000000000002  0.7571178928027359  0.0801050834713048   T   T   T
