Sr Co O 
 1.0000000000000000
    -3.6527530250540208    0.0000000000000000    0.0000000000000000
     0.0000000000000000   -8.3018228799848970    0.0654477992084048
     0.0000000000000000    4.0510636942058698   12.4668249172924988
 Sr  Co  O  
   6   6  12
Selective dynamics
Direct
 -0.0000000000000000  0.0269724558132598 -0.0133218090168463   T   T   T
 -0.0000000000000000  0.1579989071958693  0.3020544718426206   T   T   T
 -0.0000000000000000  0.3733176370135055  0.6858004657864359   T   T   T
 -0.0000000000000000  0.5156894069664190  0.0099514091708188   T   T   T
 -0.0000000000000000  0.6361247904565841  0.3606601102010947   T   T   T
 -0.0000000000000000  0.7631051057493978  0.6407074861001500   T   T   T
  0.5000000000000006  0.8383247507540068  0.1780745219937221   T   T   T
  0.5000000000000006  0.0180305814965429  0.5174307707280322   T   T   T
  0.5000000000000006  0.1628592450983552  0.8098588685941583   T   T   T
  0.5000000000000006  0.3108419802145936  0.1648721596029568   T   T   T
  0.5000000000000006  0.4010442625298815  0.4739085501780619   T   T   T
  0.5000000000000006  0.7212781807793791  0.8484141191798338   T   T   T
 -0.0000000000000000  0.7699215507196591  0.1997353479493431   T   T   T
  0.5000000000000006  0.0442783304828372  0.1421442226917979   T   T   T
  0.5000000000000006  0.1431475918712287  0.4212472459600749   T   T   T
  0.5000000000000006  0.1606122762404632  0.6592978659929259   T   T   T
 -0.0000000000000000  0.2709524788446906  0.8581155442939548   T   T   T
 -0.0000000000000000  0.3272654609597055  0.1191212537419527   T   T   T
  0.5000000000000006  0.4175535551938247  0.3174307662681688   T   T   T
 -0.0000000000000000  0.4708253176610557  0.5087714939481437   T   T   T
  0.5000000000000006  0.7864224786400963  0.4963382967982967   T   T   T
  0.5000000000000006  0.5945580791080590  0.6995308915010054   T   T   T
 -0.0000000000000000  0.7080557351067948  0.9107136969208294   T   T   T
  0.5000000000000006  0.9641530727942380  0.8558088538553988   T   T   T
