Sr Co O 
 1.0000000000000000
    -3.7508906546382925    0.0000000000000000    0.0000000000000000
     0.0000000000000000   -8.4624563406852591   -0.0049403820073521
     0.0000000000000000    4.2379102400435134   11.5438205856839637
 Sr  Co  O  
   6   6  12
Selective dynamics
Direct
 -0.0000000000000000 -0.0241878953659553  0.0031748872168603   T   T   T
 -0.0000000000000000  0.1623169625859573  0.3091731957810231   T   T   T
 -0.0000000000000000  0.3628651425684420  0.6774321705107198   T   T   T
 -0.0000000000000000  0.5133127232546936  0.0377220666407945   T   T   T
 -0.0000000000000000  0.6573369095218482  0.3302507011639353   T   T   T
 -0.0000000000000000  0.7720742195533674  0.6384212851409553   T   T   T
  0.4999999999999993  0.8409467706414272  0.1741720775943344   T   T   T
  0.4999999999999993  0.0319999094697899  0.5266732879449194   T   T   T
  0.4999999999999993  0.1344420854020500  0.8308962924106926   T   T   T
  0.4999999999999993  0.3049769573007933  0.1429165362098447   T   T   T
  0.4999999999999993  0.4464934840909979  0.4923898918310367   T   T   T
  0.4999999999999993  0.6756165499871248  0.8338592466887512   T   T   T
 -0.0000000000000000  0.8466109020985958  0.1774438199679284   T   T   T
  0.4999999999999993  0.0605044620053217  0.1475221247652198   T   T   T
  0.4999999999999993  0.1935670023149285  0.4553287644192010   T   T   T
  0.4999999999999993  0.1764916441100374  0.6914597514965192   T   T   T
  0.4999999999999993  0.2982496263089759 -0.0236517245843208   T   T   T
 -0.0000000000000000  0.3501632422399830  0.1903674839578035   T   T   T
  0.4999999999999993  0.6251145749779269  0.1888367436502318   T   T   T
 -0.0000000000000000  0.4866553058954069  0.4636794970938410   T   T   T
  0.4999999999999993  0.8064290728366502  0.5006351063497138   T   T   T
  0.4999999999999993  0.5651722404294711  0.6640778850406633   T   T   T
 -0.0000000000000000  0.6316052957518983  0.8752952280916695   T   T   T
  0.4999999999999993  0.9145760362493663  0.8385903516489752   T   T   T
