Sr Co O 
 1.0000000000000000
    -3.6898242601468465    0.0000000000000000    0.0000000000000000
     0.0000000000000000   -8.0037579176650997   -0.0000000000000000
     0.0000000000000000    4.0018789588325498   12.2286327153949745
 Sr  Co  O  
   6   6  13
Selective dynamics
Direct
 -0.0000000000000000  0.0138025925971765  0.0102834052304256   T   T   T
  0.0000000000000000  0.1599988496921226  0.3136611939661987   T   T   T
  0.0000000000000000  0.3566086791662018  0.6716193616484124   T   T   T
  0.0000000000000000  0.4964808126332488  0.0102834052304256   T   T   T
 -0.0000000000000000  0.6536623442740759  0.3136611939661987   T   T   T
 -0.0000000000000000  0.8150106824822091  0.6716193616484124   T   T   T
  0.4999999999999998  0.8343247377799157  0.1686494755598319   T   T   T
  0.4999999999999998 -0.0065827244384718  0.4868345511230577   T   T   T
  0.4999999999999998  0.1714537582846797  0.8429075165693615   T   T   T
  0.4999999999999998  0.3329029932163227  0.1658059864326454   T   T   T
  0.4999999999999998  0.5017045319127974  0.5034090638255958   T   T   T
  0.4999999999999998  0.6645948056765035  0.8291896113530089   T   T   T
 -0.0000000000000000  0.8175487567055525  0.1350975134111055   T   T   T
  0.4999999999999998  0.0699628188646821  0.1591649595926130   T   T   T
  0.4999999999999998  0.9168459657131460  0.3336919314262926   T   T   T
  0.4999999999999998  0.2336651585771874  0.5240019417955725   T   T   T
  0.4999999999999998  0.3739899413526170  0.8098350167197388   T   T   T
  0.4999999999999998  0.2476491839683606 -0.0047016320632789   T   T   T
 -0.0000000000000000  0.3372017564993486  0.1744035129986972   T   T   T
  0.4999999999999998  0.5892021407279302  0.1591649595926130   T   T   T
  0.4999999999999998  0.4276645826171396  0.3553291652342801   T   T   T
  0.4999999999999998  0.7903367832183847  0.5240019417955725   T   T   T
  0.4999999999999998  0.5785964367902735  0.6571928735805481   T   T   T
 -0.0000000000000000  0.6875293480779912  0.8750586961559841   T   T   T
  0.4999999999999998  0.9358450753671196  0.8098350167197388   T   T   T
