Sr Co O 
 1.0000000000000000
    -3.5999818282402920    0.0000000000000000    0.0000000000000000
     0.0000000000000000   -8.2322313440416863   -0.0441274186175971
     0.0000000000000000    4.1808735690558700   12.1049060443706669
 Sr  Co  O  
   6   6  13
Selective dynamics
Direct
 -0.0000000000000000  0.0138763596363389 -0.0030198609845668   T   T   T
 -0.0000000000000000  0.1457514110493543  0.3187602484729646   T   T   T
 -0.0000000000000000  0.3404159497822990  0.6755614846918003   T   T   T
 -0.0000000000000000  0.4784588607989838 -0.0109198375372348   T   T   T
 -0.0000000000000000  0.6728145026348487  0.3411090562003826   T   T   T
 -0.0000000000000000  0.8375794582119280  0.6656654317825549   T   T   T
  0.4999999999999997  0.8268882439494153  0.1722754574642683   T   T   T
  0.4999999999999997 -0.0016426467166972  0.5022695644183272   T   T   T
  0.4999999999999997  0.1598847036129930  0.8296882165689200   T   T   T
  0.4999999999999997  0.3471824855773215  0.1547982308227208   T   T   T
  0.4999999999999997  0.5154905052365281  0.5099095482227745   T   T   T
  0.4999999999999997  0.6764581051084690  0.8339168801600226   T   T   T
  0.4999999999999997  0.0278380635605823  0.1439882510637739   T   T   T
  0.4999999999999997  0.9187576029220059  0.3292422209269680   T   T   T
 -0.0000000000000000  0.0778558663402245  0.5031324559238982   T   T   T
  0.4999999999999997  0.0841649501880862  0.6773568198997708   T   T   T
  0.4999999999999997  0.3851371100746204  0.8332792574261072   T   T   T
  0.4999999999999997  0.2376034026187447 -0.0135173170985957   T   T   T
 -0.0000000000000000  0.3573127691176972  0.2099850941578992   T   T   T
  0.4999999999999997  0.5967018121666128  0.1405475591561738   T   T   T
 -0.0000000000000000  0.4373365516782654  0.4628738756556549   T   T   T
  0.4999999999999997  0.7463146205130756  0.4916390036443622   T   T   T
  0.4999999999999997  0.5684457383816125  0.6699348314141752   T   T   T
 -0.0000000000000000  0.6989502811431015  0.8994300235165348   T   T   T
  0.4999999999999997  0.9337566357845031  0.8287602146490042   T   T   T
