Sr Co O 
 1.0000000000000000
    -3.7558221367683986    0.0000000000000000    0.0000000000000000
     0.0000000000000000   -7.9576675847194549   -0.1518962499602602
     0.0000000000000000    4.2018402206129188   12.2040676485233721
 Sr  Co  O  
   6   6  12
Selective dynamics
Direct
 -0.0000000000000000  0.0249372664606895 -0.0075511177231956   T   T   T
 -0.0000000000000000  0.1994706080135930  0.3428870256829327   T   T   T
 -0.0000000000000000  0.3491556002646719  0.6537885445241232   T   T   T
 -0.0000000000000000  0.5025259450565391  0.0095158523546643   T   T   T
 -0.0000000000000000  0.6303893982979117  0.3444687864086635   T   T   T
 -0.0000000000000000  0.8130323211984396  0.6748992031733433   T   T   T
  0.5000000000000004  0.8537524137209240  0.1781820259335122   T   T   T
  0.5000000000000004 -0.0241680091841426  0.4785095318123248   T   T   T
  0.5000000000000004  0.1628782712687047  0.8341667283157386   T   T   T
  0.5000000000000004  0.3396584225533289  0.1604695212640272   T   T   T
  0.5000000000000004  0.5099088282487013  0.5102109001864538   T   T   T
  0.5000000000000004  0.6724044220115653  0.8361599986662479   T   T   T
 -0.0000000000000000  0.8623124634134007  0.1339915268824062   T   T   T
  0.5000000000000004  0.8366490889512377  0.3198782195391718   T   T   T
  0.5000000000000004  0.2124979393028390  0.5011129357438751   T   T   T
 -0.0000000000000000  0.1709388317871922  0.7814101837867352   T   T   T
  0.5000000000000004  0.3052234478383781 -0.0007647608366674   T   T   T
 -0.0000000000000000  0.3417327320535101  0.1591938082579638   T   T   T
  0.5000000000000004  0.3880361366882155  0.3152622840720356   T   T   T
 -0.0000000000000000  0.4995294711596253  0.4967675647360615   T   T   T
  0.5000000000000004  0.8027708861476932  0.5399441145568309   T   T   T
  0.5000000000000004  0.5673047341403629  0.6767006664332239   T   T   T
 -0.0000000000000000  0.6314656006065633  0.8671037159040658   T   T   T
  0.5000000000000004  0.9309265911810958  0.8603594049812567   T   T   T
