Sr Co O 
 1.0000000000000000
    -3.6664730610650538    0.0000000000000000    0.0000000000000000
     0.0000000000000000   -8.2792223874275521    0.0031571097209121
     0.0000000000000000    4.1334880842243376   12.4493586239469654
 Sr  Co  O  
   6   6  12
Selective dynamics
Direct
 -0.0000000000000000 -0.0322866748677786 -0.0194971590850023   T   T   T
 -0.0000000000000000  0.1745915041154056  0.3448795099422207   T   T   T
 -0.0000000000000000  0.3512417093273590  0.6769309438303059   T   T   T
 -0.0000000000000000  0.5490173455586688  0.0036931297077287   T   T   T
 -0.0000000000000000  0.5988917037106153  0.3402290484573117   T   T   T
 -0.0000000000000000  0.8464447176808668  0.6490968744535784   T   T   T
  0.5000000000000003  0.8174944342021108  0.1888303240278157   T   T   T
  0.5000000000000003 -0.0296780056377491  0.4804491900593527   T   T   T
  0.5000000000000003  0.1801474022569492  0.8580925844142038   T   T   T
  0.5000000000000003  0.3315177750529896  0.1491056237246858   T   T   T
  0.5000000000000003  0.5128739873536634  0.5181862389910517   T   T   T
  0.5000000000000003  0.6965165149891798  0.8094600665926162   T   T   T
  0.5000000000000003  0.8023655054051427  0.0470038184365995   T   T   T
  0.5000000000000003  0.9641857381058376  0.3262661777930026   T   T   T
 -0.0000000000000000  0.0576309387518997  0.5402814878872032   T   T   T
 -0.0000000000000000  0.2703551778740509  0.8432740219971573   T   T   T
  0.5000000000000003  0.1853986240980517  0.0137900868923289   T   T   T
  0.5000000000000003  0.5723608527377626  0.1625009397752169   T   T   T
  0.5000000000000003  0.3504910904335008  0.2914385614224125   T   T   T
 -0.0000000000000000  0.4402695094091388  0.4845271093250588   T   T   T
  0.5000000000000003  0.7341774226695214  0.4838186490372267   T   T   T
  0.5000000000000003  0.5276666477577661  0.6678516344277012   T   T   T
 -0.0000000000000000  0.6691521053086743  0.8544106861133972   T   T   T
  0.5000000000000003  0.9291739056926296  0.7853803725466365   T   T   T
