Sr Co O 
 1.0000000000000000
    -3.5202830194833057   -0.0000000000000000    0.0000000000000000
    -0.0000000000000000   -7.8328117476391075    0.0000000000000000
    -0.0000000000000000    3.9164058738195537   12.3119213179344733
 Sr  Co  O  
   6   6  12
Selective dynamics
Direct
 -0.0000000000000000 -0.0058180341642116 -0.0017495637192032   T   T   T
  0.0000000000000000  0.1731583098122193  0.3314663486824214   T   T   T
 -0.0000000000000000  0.3362571206953233  0.6523252380779925   T   T   T
  0.0000000000000000  0.5172652159506647  0.0143414285886737   T   T   T
 -0.0000000000000000  0.6750252944631314  0.3352003179842447   T   T   T
  0.0000000000000000  0.8292648628883237  0.6684162303858698   T   T   T
  0.5000000000000008  0.8434595459322324  0.1713847468634739   T   T   T
  0.5000000000000008  0.0034581849699482  0.4939070466399934   T   T   T
  0.5000000000000008  0.1545129961536385  0.8333333333333336   T   T   T
  0.5000000000000008  0.3428844716632889  0.1727596200266733   T   T   T
  0.5000000000000008  0.5054081324020914  0.4952819198031933   T   T   T
  0.5000000000000008  0.6537710033694495  0.8333333333333336   T   T   T
  0.5000000000000008  0.7638279383826121  0.0196582490570449   T   T   T
  0.5000000000000008  0.0983741988346121  0.1649976578932761   T   T   T
  0.5000000000000008  0.9216542356162497  0.3277767820630213   T   T   T
  0.5000000000000008  0.2458986018030823  0.4930808919486445   T   T   T
  0.5000000000000008  0.1164180400163089  0.6837602726445057   T   T   T
  0.5000000000000008  0.2659911007051365 -0.0170936059778401   T   T   T
  0.5000000000000008  0.5861510431877717  0.1735857747180219   T   T   T
  0.5000000000000008  0.4272107868865608  0.3388898846036450   T   T   T
  0.5000000000000008  0.7667098742746692  0.5016690087733907   T   T   T
  0.5000000000000008  0.5775030226589001  0.6470084176096220   T   T   T
 -0.0000000000000000  0.5428075371246475  0.8333333333333336   T   T   T
  0.5000000000000008  0.9088064353871941  0.8333333333333336   T   T   T
