Sr Co O 
 1.0000000000000000
     3.8594202872117709    0.0000000000000000   -0.0000000000000000
    -0.0000000000000000    3.8594202872117709    0.0000000000000000
    -0.0000000000000000    0.0000000000000000   20.0234143935749813
 Sr  Co  O  
   5   5  10
Selective dynamics
Direct
  0.0000000000000000 -0.0000000000000000 -0.0000000000000000   T   T   T
  0.0000000000000000  0.0000000000000000  0.1777950267300688   T   T   T
  0.0000000000000000  0.0000000000000000  0.4121714868739874   T   T   T
 -0.0000000000000000  0.0000000000000000  0.5878285131260121   T   T   T
 -0.0000000000000000 -0.0000000000000000  0.8222049732699308   T   T   T
  0.5000000000000001  0.5000000000000001  0.0976913151631538   T   T   T
  0.5000000000000001  0.5000000000000001  0.2987237587752878   T   T   T
  0.5000000000000001  0.5000000000000001  0.4999999999999999   T   T   T
  0.5000000000000001  0.5000000000000001  0.7012762412247117   T   T   T
  0.5000000000000001  0.5000000000000001  0.9023086848368459   T   T   T
  0.0000000000000000  0.5000000000000001  0.0880575513718135   T   T   T
  0.5000000000000001  0.0000000000000000  0.0881479803990071   T   T   T
  0.5000000000000001  0.5000000000000001  0.2072899698602636   T   T   T
 -0.0000000000000000  0.5000000000000001  0.3327848157995567   T   T   T
 -0.0000000000000000  0.5000000000000001  0.5097872666839265   T   T   T
  0.5000000000000001 -0.0000000000000000  0.4902127333160728   T   T   T
  0.5000000000000001  0.0000000000000000  0.6672151842004426   T   T   T
  0.5000000000000001  0.5000000000000001  0.7927100301397358   T   T   T
 -0.0000000000000000  0.5000000000000001  0.9118520196009919   T   T   T
  0.5000000000000001 -0.0000000000000000  0.9119424486281863   T   T   T
