Sr Co O 
 1.0000000000000000
    -3.6223516334711654    0.0000000000000000    0.0000000000000000
     0.0000000000000000    3.9734297444548394    4.0901106840621289
     0.0000000000000000    8.0936533485642297  -12.4205286269169566
 Sr  Co  O  
   5   5  11
Selective dynamics
Direct
 -0.0000000000000000 -0.1005436904458402 -0.0049698372377631   T   T   T
 -0.0000000000000000  0.3988997711498259  0.8009980886571152   T   T   T
 -0.0000000000000000  0.7912732468824908  0.5959531772009655   T   T   T
 -0.0000000000000000  0.2003561350086828  0.4113619992837793   T   T   T
 -0.0000000000000000  0.6089703435679211  0.2205768754611483   T   T   T
  0.5000000000000002  0.4562139401869821  0.0240193421178734   T   T   T
  0.5000000000000002  0.8949577781224158  0.7886206225487924   T   T   T
  0.5000000000000002  0.2969616114958372  0.6060901866912907   T   T   T
  0.5000000000000002  0.7013423081809388  0.4067846801324613   T   T   T
  0.5000000000000002  0.0734421105278453  0.2112703412409459   T   T   T
  0.5000000000000002  0.5914867744828042  0.9151180049234496   T   T   T
 -0.0000000000000000  0.9657378927268435  0.8348007015006607   T   T   T
  0.5000000000000002  0.5802718676955606  0.6974073762828933   T   T   T
  0.5000000000000002  0.1185517668598931  0.6976841172129313   T   T   T
  0.5000000000000002  0.0168709092943875  0.5161367204942646   T   T   T
  0.5000000000000002  0.4724514827416168  0.5151775573807968   T   T   T
 -0.0000000000000000  0.6700792994118944  0.4090410519150509   T   T   T
  0.5000000000000002  0.3789030364782326  0.2770633433498535   T   T   T
  0.5000000000000002  0.9126604758651129  0.3116430192578721   T   T   T
 -0.0000000000000000  0.3495697581689349  0.0545165796838327   T   T   T
  0.5000000000000002  0.8215429838217143  0.1107059840753900   T   T   T
