Sr Co O 
 1.0000000000000000
    -3.6847751839720715    0.0000000000000000    0.0000000000000000
     0.0000000000000000   -8.2337721855813104   -0.0000000000000000
     0.0000000000000000    4.1168860927906552   11.7928164916505001
 Sr  Co  O  
   6   6  12
Selective dynamics
Direct
  0.0000000000000000 -0.0153846153702528 -0.0102766886975964   T   T   T
 -0.0000000000000000  0.1736690296718883  0.3229164614818415   T   T   T
 -0.0000000000000000  0.3423887451389768  0.6830627666553784   T   T   T
  0.0000000000000000  0.5051079266726560 -0.0102766886975964   T   T   T
  0.0000000000000000  0.6492474318099524  0.3229164614818415   T   T   T
  0.0000000000000000  0.8406740215163993  0.6830627666553784   T   T   T
  0.5000000000000000  0.8372489609384558  0.1744979218769130   T   T   T
  0.5000000000000000  0.0044679836057698  0.5089359672115398   T   T   T
  0.5000000000000000  0.1698571738154171  0.8397143476308351   T   T   T
  0.5000000000000000  0.3317890261418379  0.1635780522836768   T   T   T
  0.5000000000000000  0.4954560047873534  0.4909120095747085   T   T   T
  0.5000000000000000  0.6631295152569139  0.8262590305138307   T   T   T
 -0.0000000000000000  0.8536860168475513  0.2073720336951042   T   T   T
  0.5000000000000000  0.0976026548425658  0.1420667109283156   T   T   T
  0.5000000000000000  0.1974620737225605  0.4644102561948611   T   T   T
  0.5000000000000000  0.0840687504063452  0.6681375008126906   T   T   T
 -0.0000000000000000  0.2021554551934804  0.9043109103869618   T   T   T
  0.5000000000000000  0.4264172013969897  0.8347116396640420   T   T   T
  0.5000000000000000  0.5444640560857489  0.1420667109283156   T   T   T
  0.5000000000000000  0.4161828227447548  0.3323656454895115   T   T   T
  0.5000000000000000  0.7669481824722997  0.4644102561948611   T   T   T
  0.5000000000000000  0.5719010393734083  0.6438020787468185   T   T   T
 -0.0000000000000000  0.6831660634142790  0.8663321268285608   T   T   T
  0.5000000000000000  0.9082944382670503  0.8347116396640420   T   T   T
