Sr Co O 
 1.0000000000000000
    -3.6780033772611480    0.0000000000000000    0.0000000000000000
     0.0000000000000000   -8.2039964267300221   -0.1075996799507670
     0.0000000000000000    4.2608144972357351   12.5814800589849263
 Sr  Co  O  
   6   6  12
Selective dynamics
Direct
 -0.0000000000000000  0.0331845979169068 -0.0523756579272048   T   T   T
 -0.0000000000000000  0.1710339287531956  0.3486045351524096   T   T   T
 -0.0000000000000000  0.3733736109494987  0.6805834764183603   T   T   T
 -0.0000000000000000  0.4837761066289437 -0.0278330366941465   T   T   T
 -0.0000000000000000  0.6215417768830260  0.3578476831936745   T   T   T
 -0.0000000000000000  0.8409087561691916  0.6634264705676982   T   T   T
  0.4999999999999990  0.7719489811869272  0.2023476162638295   T   T   T
  0.4999999999999990 -0.0129868306737029  0.4874292548513680   T   T   T
  0.4999999999999990  0.1775881504858979  0.8069672300461737   T   T   T
  0.4999999999999990  0.3207329436818006  0.1585835059539679   T   T   T
  0.4999999999999990  0.5216039123871561  0.5227868524762195   T   T   T
  0.4999999999999990  0.6878902213964780  0.8350335831228870   T   T   T
 -0.0000000000000000  0.6899631464237481  0.1703744513296891   T   T   T
  0.4999999999999990  0.9650183650819841  0.3289644322013794   T   T   T
 -0.0000000000000000  0.0775717979968039  0.5312134776134187   T   T   T
 -0.0000000000000000  0.1689792985980294  0.7973376678626521   T   T   T
  0.4999999999999990  0.4223338781764720  0.8317829556638731   T   T   T
  0.4999999999999990  0.2723074884859546  0.0190812168193436   T   T   T
  0.4999999999999990  0.3786237308950270  0.2988646460500152   T   T   T
 -0.0000000000000000  0.4458414433589103  0.4921416551222170   T   T   T
  0.4999999999999990  0.7510011010097978  0.4959830150382755   T   T   T
  0.4999999999999990  0.5904781885609546  0.6764557789065875   T   T   T
 -0.0000000000000000  0.7243057507723922  0.8999385165487147   T   T   T
  0.4999999999999990  0.9396465057132248  0.8077939108954152   T   T   T
