Sr Co O 
 1.0000000000000000
    -3.7057272048505037    0.0000000000000000    0.0000000000000000
     0.0000000000000000   -7.5587132048188241   -0.0738377161976131
     0.0000000000000000    3.8895002221877539   12.7570769708841318
 Sr  Co  O  
   6   6  12
Selective dynamics
Direct
 -0.0000000000000000 -0.0206887130836437 -0.0071083442336312   T   T   T
  0.0000000000000000  0.1516380389320895  0.3170572607961707   T   T   T
 -0.0000000000000000  0.3333333333333343  0.6666666666666682   T   T   T
 -0.0000000000000000  0.5150286277345784  0.0162760725371633   T   T   T
  0.0000000000000000  0.6873553797503115  0.3404416775669651   T   T   T
 -0.0000000000000000  0.8333333333333346  0.6666666666666671   T   T   T
  0.4999999999999998  0.8333333333333340  0.1666666666666669   T   T   T
  0.4999999999999998  0.0148681672498454  0.4843387099235617   T   T   T
  0.4999999999999998  0.1559447331763514  0.8429910754676943   T   T   T
  0.4999999999999998  0.3333333333333340  0.1666666666666671   T   T   T
  0.4999999999999998  0.5107219334903180  0.4903422578656425   T   T   T
  0.4999999999999998  0.6517984994168226  0.8489946234097738   T   T   T
  0.4999999999999998  0.7632908211012571  0.0156433303635208   T   T   T
 -0.0000000000000000  0.8333333333333340  0.1666666666666669   T   T   T
  0.4999999999999998  0.9033758455654118  0.3176900029698131   T   T   T
 -0.0000000000000000  0.1064760984051036  0.4911762371504374   T   T   T
  0.4999999999999998  0.1305638892998733  0.7031158738057648   T   T   T
  0.4999999999999998  0.2671965154722478 -0.0118565585864361   T   T   T
 -0.0000000000000000  0.3333333333333340  0.1666666666666671   T   T   T
  0.4999999999999998  0.3994701511944193  0.3451898919197700   T   T   T
  0.4999999999999998  0.7698064409863069  0.5049987777509367   T   T   T
  0.4999999999999998  0.5361027773667955  0.6302174595275706   T   T   T
  0.0000000000000000  0.5601905682615648  0.8421570961828982   T   T   T
  0.4999999999999998  0.8968602256803626  0.8283345555823998   T   T   T
