Sr Co O 
 1.0000000000000000
    -3.6834833924100954    0.0000000000000000    0.0000000000000000
     0.0000000000000000   -8.1633726311637922    0.0134227698319603
     0.0000000000000000    4.0623245818588254   12.2814574679869875
 Sr  Co  O  
   6   6  12
Selective dynamics
Direct
 -0.0000000000000000  0.0064991237771927 -0.0146715110484890   T   T   T
 -0.0000000000000000  0.1453877285277560  0.3365692524774925   T   T   T
 -0.0000000000000000  0.3414117700799069  0.6721840188842264   T   T   T
 -0.0000000000000000  0.4753512363088006 -0.0037863642556827   T   T   T
 -0.0000000000000000  0.6977425566748503  0.3462204396916389   T   T   T
 -0.0000000000000000  0.7737553392450869  0.6764995676852681   T   T   T
  0.5000000000000001  0.8575981034233251  0.1583205266627395   T   T   T
  0.5000000000000001 -0.0183898008294622  0.4935753970083993   T   T   T
  0.5000000000000001  0.1478939670263243  0.8427920057500454   T   T   T
  0.5000000000000001  0.3625838795036683  0.1768976545858320   T   T   T
  0.5000000000000001  0.4980500047787016  0.4791397034922629   T   T   T
  0.5000000000000001  0.6811015618673194  0.8644582665823966   T   T   T
  0.5000000000000001  0.6834309898458982  0.0164171232704135   T   T   T
 -0.0000000000000000  0.9581948572542480  0.1566373124065495   T   T   T
  0.5000000000000001  0.8928026435543049  0.3225895530503614   T   T   T
 -0.0000000000000000  0.0734704610306915  0.5160919220358851   T   T   T
 -0.0000000000000000  0.2083255890566634  0.8172503959876753   T   T   T
  0.5000000000000001  0.2290640257307705  0.0148487824401213   T   T   T
 -0.0000000000000000  0.4588234065792179  0.1830977702875222   T   T   T
  0.5000000000000001  0.3550356503119684  0.3378376330378169   T   T   T
  0.5000000000000001  0.7489011432898157  0.5130361851475608   T   T   T
  0.5000000000000001  0.4956307554962613  0.6203217548630118   T   T   T
 -0.0000000000000000  0.6143552977264519  0.8241255793159306   T   T   T
  0.5000000000000001  0.8963130667693170  0.8162136927155655   T   T   T
