Sr Co O 
 1.0000000000000000
    -3.6726933956309549    0.0000000000000000    0.0000000000000000
     0.0000000000000000   -8.5204120696560572    0.0073681427055271
     0.0000000000000000    4.2634947757349417   11.5746610477826781
 Sr  Co  O  
   6   6  12
Selective dynamics
Direct
 -0.0000000000000000 -0.0228317009298650 -0.0095313833348105   T   T   T
 -0.0000000000000000  0.1583789264797216  0.3449396534878409   T   T   T
 -0.0000000000000000  0.3121838644102682  0.6462891763748747   T   T   T
 -0.0000000000000000  0.5158772531685473  0.0342110153250351   T   T   T
 -0.0000000000000000  0.6690691855576594  0.3480607730027812   T   T   T
 -0.0000000000000000  0.8562746740537763  0.6634067463642747   T   T   T
  0.5000000000000001  0.8628439966271757  0.1773462636422848   T   T   T
  0.5000000000000001 -0.0054723807567401  0.5058727740162396   T   T   T
  0.5000000000000001  0.1544478848128776  0.8474504240229961   T   T   T
  0.5000000000000001  0.3091622917155918  0.1720609277177674   T   T   T
  0.5000000000000001  0.5063761436866673  0.5071211478090993   T   T   T
  0.5000000000000001  0.6681139636062186  0.8287590736819249   T   T   T
 -0.0000000000000000  0.8268995234520765  0.1856975539370350   T   T   T
  0.5000000000000001  0.0935991115176490  0.1617262540184274   T   T   T
 -0.0000000000000000 -0.0297859082527284  0.4689945511692871   T   T   T
  0.5000000000000001  0.2066074209625731  0.4819638350995878   T   T   T
  0.5000000000000001  0.1065377128654667  0.6825509641420282   T   T   T
 -0.0000000000000000  0.2243909713711980  0.9141967406337047   T   T   T
  0.5000000000000001  0.5211736023202646  0.1781284258382703   T   T   T
 -0.0000000000000000  0.4598314663102057  0.4405840514980799   T   T   T
  0.5000000000000001  0.7561743672283839  0.5064958967758323   T   T   T
  0.5000000000000001  0.5280427916052352  0.6717017406281618   T   T   T
 -0.0000000000000000  0.6597803706810891  0.8988502378705177   T   T   T
  0.5000000000000001  0.9123243678781899  0.8431231585311196   T   T   T
