Sr Co O 
 1.0000000000000000
    -3.7522375996864521    0.0000000000000000    0.0000000000000000
     0.0000000000000000   -8.3394547606468130   -0.1692502199064241
     0.0000000000000000    4.4263499642273239   11.6551621588338818
 Sr  Co  O  
   6   6  12
Selective dynamics
Direct
 -0.0000000000000000  0.0126080353087042 -0.0181552900802695   T   T   T
 -0.0000000000000000  0.1898019415401028  0.3015406535944012   T   T   T
 -0.0000000000000000  0.3351162672121295  0.6448576263063204   T   T   T
 -0.0000000000000000  0.4794773911752032  0.0044741925762665   T   T   T
 -0.0000000000000000  0.6236960791092515  0.3343015728393422   T   T   T
 -0.0000000000000000  0.8052324855550346  0.6556560796182277   T   T   T
  0.4999999999999997  0.8282808197713055  0.1636196757933906   T   T   T
  0.4999999999999997 -0.0176502079868559  0.4674204235836910   T   T   T
  0.4999999999999997  0.1385058496103861  0.8108469165960718   T   T   T
  0.4999999999999997  0.3380066222640064  0.1496208355810949   T   T   T
  0.4999999999999997  0.4935449464344823  0.4941913133466627   T   T   T
  0.4999999999999997  0.6686395427957932  0.8275657230645626   T   T   T
 -0.0000000000000000  1.0540720871150395  0.4555622845241104   T   T   T
  0.4999999999999997  0.0226634488118328  0.1392931247686312   T   T   T
 -0.0000000000000000  0.1479019342151961  0.7565610014636300   T   T   T
  0.4999999999999997  0.2764442972757870 -0.0248575729272082   T   T   T
 -0.0000000000000000  0.3206306951267082  0.1478106783246240   T   T   T
  0.4999999999999997  0.6256770468465771  0.1769179650012961   T   T   T
  0.4999999999999997  0.4017120946660881  0.3232014626037474   T   T   T
 -0.0000000000000000  0.4797157155307736  0.4915026754301927   T   T   T
  0.4999999999999997  0.7840487024031146  0.5038063889086142   T   T   T
  0.4999999999999997  0.5230349275199234  0.6613577737495128   T   T   T
 -0.0000000000000000  0.6493401048779402  0.8795495250510271   T   T   T
  0.4999999999999997  0.9028325563090855  0.8200216778654045   T   T   T
