Sr Co O 
 1.0000000000000000
    -3.5813587301894736    0.0000000000000000    0.0000000000000000
     0.0000000000000000   -8.6295995689456255   -0.0844177288542299
     0.0000000000000000    4.4415598819644302   11.9055305666185145
 Sr  Co  O  
   6   6  12
Selective dynamics
Direct
 -0.0000000000000000 -0.0246719695656417  0.0085210049825085   T   T   T
 -0.0000000000000000  0.1670398867643718  0.3383035559058821   T   T   T
 -0.0000000000000000  0.3744947551212298  0.6374551294319021   T   T   T
 -0.0000000000000000  0.5394141529837075  0.0071604072934662   T   T   T
 -0.0000000000000000  0.7179640903013119  0.3590222608656285   T   T   T
 -0.0000000000000000  0.8295970281000612  0.6603165661981911   T   T   T
  0.5000000000000004  0.8157902670322971  0.1811036229224492   T   T   T
  0.5000000000000004  0.0323537543433875  0.5198533443630723   T   T   T
  0.5000000000000004  0.1601357054530454  0.8798749807083108   T   T   T
  0.5000000000000004  0.3583033059846488  0.1725858909932189   T   T   T
  0.5000000000000004  0.5143626755436375  0.4819502853572729   T   T   T
  0.5000000000000004  0.6753962729274823  0.8204796381389079   T   T   T
  0.5000000000000004  0.7684888788653843  0.0306043041262653   T   T   T
  0.5000000000000004  0.9294195139876090  0.3299861382642600   T   T   T
 -0.0000000000000000  0.0667590143495089  0.5902416243622448   T   T   T
  0.5000000000000004  0.2582739487991474  0.4904079947468846   T   T   T
 -0.0000000000000000  0.2360519949768853  0.9161979666294141   T   T   T
  0.5000000000000004  0.5667895404400518  0.1703076176663411   T   T   T
  0.5000000000000004  0.1481737651626364  0.1632817553690189   T   T   T
 -0.0000000000000000  0.4704413312719651  0.4072670390774667   T   T   T
  0.5000000000000004  0.7769595394242897  0.5040356774724488   T   T   T
  0.5000000000000004  0.5980461191260559  0.6517231954696596   T   T   T
 -0.0000000000000000  0.5932352571549490  0.8352353471990854   T   T   T
  0.5000000000000004  0.9271813278649625  0.8440846191795680   T   T   T
