Sr Co O 
 1.0000000000000000
    -3.6799230172423845    0.0000000000000000    0.0000000000000000
     0.0000000000000000   -7.8401062425552652   -0.0343425369162959
     0.0000000000000000    3.9721623706701745   12.4831804932741512
 Sr  Co  O  
   6   6  12
Selective dynamics
Direct
 -0.0000000000000000 -0.0285993061793013 -0.0242602562405720   T   T   T
 -0.0000000000000000  0.1575611524129588  0.3344452727268524   T   T   T
 -0.0000000000000000  0.3322390046564924  0.6848506166608518   T   T   T
 -0.0000000000000000  0.4838655400618566 -0.0127901430700632   T   T   T
 -0.0000000000000000  0.7015829487848045  0.3480114560810518   T   T   T
 -0.0000000000000000  0.8128961465358491  0.6775792202413146   T   T   T
  0.5000000000000010  0.8309318369027248  0.1574003285356115   T   T   T
  0.5000000000000010  0.0146990561401977  0.5273356137870512   T   T   T
  0.5000000000000010  0.1538001732765763  0.8390819163527247   T   T   T
  0.5000000000000010  0.3634908516621305  0.1628193668649335   T   T   T
  0.5000000000000010  0.5047671668824489  0.4893971343144758   T   T   T
  0.5000000000000010  0.6505567984964472  0.8370588320577249   T   T   T
  0.5000000000000010  0.7507284287644362  0.0170656306655904   T   T   T
  0.5000000000000010  0.9055685159941511  0.2977461263176492   T   T   T
 -0.0000000000000000  0.0913053714059935  0.4997280838450996   T   T   T
  0.5000000000000010  0.0810871126209232  0.6862313416418393   T   T   T
  0.5000000000000010  0.3933749735546324  0.8461294215200823   T   T   T
  0.5000000000000010  0.2222748990851787  0.0045277157616780   T   T   T
 -0.0000000000000000  0.4520002769157983  0.1753680972657400   T   T   T
  0.5000000000000010  0.3744308688712628  0.3433476057877111   T   T   T
  0.5000000000000010  0.7479261633283332  0.4874128665515590   T   T   T
  0.5000000000000010  0.5217995790615101  0.6304811970457064   T   T   T
 -0.0000000000000000  0.6523195928239007  0.8268003307503596   T   T   T
  0.5000000000000010  0.9127262954835594  0.8308989411489236   T   T   T
