Sr Co O 
 1.0000000000000000
    -3.5994816003158352    0.0000000000000000    0.0000000000000000
     0.0000000000000000   -8.6995436903364638    0.0754841797468557
     0.0000000000000000    4.2245534298997516   11.8430881304223909
 Sr  Co  O  
   6   6  12
Selective dynamics
Direct
 -0.0000000000000000  0.0264574945728622 -0.0039145606462555   T   T   T
 -0.0000000000000000  0.2021004514185297  0.3655661121744423   T   T   T
 -0.0000000000000000  0.3564812637350251  0.6622690951552996   T   T   T
 -0.0000000000000000  0.4566744636182124 -0.0180999798354231   T   T   T
 -0.0000000000000000  0.6574852041533235  0.3287024323311643   T   T   T
 -0.0000000000000000  0.8258888725096348  0.6608245500594085   T   T   T
  0.4999999999999997  0.7666919321578418  0.1244729899790981   T   T   T
  0.4999999999999997 -0.0195666371601617  0.4655659997674856   T   T   T
  0.4999999999999997  0.1379009118121260  0.8194089153780777   T   T   T
  0.4999999999999997  0.3359672859293050  0.1555133082064204   T   T   T
  0.4999999999999997  0.5452883239093982  0.5068848050205794   T   T   T
  0.4999999999999997  0.6790868209294212  0.8294665098567544   T   T   T
 -0.0000000000000000 -0.0574672755418204  0.3872486294731341   T   T   T
  0.4999999999999997  0.2213702095384011  0.5113509927989520   T   T   T
 -0.0000000000000000  0.1365715012861499  0.7571234923963300   T   T   T
  0.4999999999999997  0.4863724201575015  0.8576308644591828   T   T   T
  0.4999999999999997  0.2390825483335949 -0.0128984832332517   T   T   T
 -0.0000000000000000  0.2669115558216462  0.1869260480582877   T   T   T
  0.4999999999999997  0.5798073286438896  0.1784665831038695   T   T   T
 -0.0000000000000000  0.4919958674642177  0.4546170566409298   T   T   T
  0.4999999999999997  0.7865692521839659  0.5135418118183626   T   T   T
  0.4999999999999997  0.5894038474855566  0.6690552505365871   T   T   T
 -0.0000000000000000  0.8046882158718901  1.0841465228299001   T   T   T
  0.4999999999999997  0.9009048355250138  0.8494642514462888   T   T   T
