Sr Co O 
 1.0000000000000000
    -3.6514308589771920    0.0000000000000000    0.0000000000000000
     0.0000000000000000   -8.1068184296311099   -0.0000000000000000
     0.0000000000000000    4.0534092148155549   11.5890165331393735
 Sr  Co  O  
   6   6  13
Selective dynamics
Direct
  0.0000000000000000  0.0044217343778534  0.0021756373558243   T   T   T
 -0.0000000000000000  0.1689127636886956  0.3311576959775088   T   T   T
 -0.0000000000000000  0.3333333333333329  0.6666666666666661   T   T   T
  0.0000000000000000  0.4977539029779708  0.0021756373558243   T   T   T
 -0.0000000000000000  0.6622449322888131  0.3311576959775088   T   T   T
 -0.0000000000000000  0.8333333333333328  0.6666666666666661   T   T   T
  0.4999999999999999  0.8333333333333335  0.1666666666666665   T   T   T
  0.4999999999999999  0.0021077277487695  0.5042154554975394   T   T   T
  0.4999999999999999  0.1687084307299255  0.8374168614598517   T   T   T
  0.4999999999999999  0.3333333333333333  0.1666666666666665   T   T   T
  0.4999999999999999  0.4979582359367401  0.4959164718734804   T   T   T
  0.4999999999999999  0.6645589389178962  0.8291178778357930   T   T   T
 -0.0000000000000000  0.8333333333333335  0.1666666666666665   T   T   T
  0.4999999999999999  0.0847639484511783  0.1666666666666665   T   T   T
  0.0000000000000000 -0.0245698962429792  0.4508602075140420   T   T   T
  0.4999999999999999  0.2673445374714661  0.4945776129594624   T   T   T
  0.4999999999999999  0.0880860095991789  0.6761720191983581   T   T   T
  0.4999999999999999  0.3993221291951997  0.8387557203738699   T   T   T
  0.4999999999999999  0.2520358023466507  0.0040716046933014   T   T   T
  0.4999999999999999  0.5819027182154877  0.1666666666666665   T   T   T
  0.4999999999999999  0.4146308643200158  0.3292617286400318   T   T   T
  0.4999999999999999  0.7272330754879958  0.4945776129594623   T   T   T
  0.4999999999999999  0.5785806570674872  0.6571613141349745   T   T   T
 -0.0000000000000000  0.6912365629096452  0.8824731258192909   T   T   T
  0.4999999999999999  0.9394335911786700  0.8387557203738698   T   T   T
