Sr Co O 
 1.0000000000000000
    -3.6873937344498517    0.0000000000000000    0.0000000000000000
     0.0000000000000000    3.9207390939199982    4.0941141670315693
     0.0000000000000000    7.8715138036057501  -12.3143277613845328
 Sr  Co  O  
   5   5  12
Selective dynamics
Direct
 -0.0000000000000000 -0.0814679873233407 -0.0000838348113392   T   T   T
 -0.0000000000000000  0.3448466321250820  0.8005456464409697   T   T   T
 -0.0000000000000000  0.8491747956680276  0.5901974320014824   T   T   T
 -0.0000000000000000  0.2386410034735041  0.3907427151767076   T   T   T
 -0.0000000000000000  0.6208591983205801  0.2106878530690462   T   T   T
  0.5000000000000002  0.4723235475014921 -0.0008794772506798   T   T   T
  0.5000000000000002  0.8604076064274867  0.8050604494454734   T   T   T
  0.5000000000000002  0.3506004170523191  0.5893912866412756   T   T   T
  0.5000000000000002  0.7386080423048564  0.3997747951383145   T   T   T
  0.5000000000000002  0.0961409443918750  0.1991732787481531   T   T   T
 -0.0000000000000000  0.3597312760525413 -0.0100335191152619   T   T   T
  0.5000000000000002  0.6344762783630968  0.8845851169491524   T   T   T
 -0.0000000000000000  0.8960492932055893  0.8217542914956198   T   T   T
  0.5000000000000002  0.0448178357823265  0.7182908681641014   T   T   T
 -0.0000000000000000  0.4046698000888229  0.6357640178189986   T   T   T
  0.5000000000000002  0.0515277011475778  0.5067348319323685   T   T   T
  0.5000000000000002  0.5533946644617708  0.5041437480735760   T   T   T
 -0.0000000000000000  0.7225749999554372  0.3976740614159786   T   T   T
  0.5000000000000002  0.4055595711170141  0.2843710710978488   T   T   T
  0.5000000000000002  0.9274847314968838  0.3011462419702494   T   T   T
 -0.0000000000000000  0.1336626449563217  0.1723127223509907   T   T   T
  0.5000000000000002  0.7759167202239168  0.0986462631815545   T   T   T
