Sr Co O 
 1.0000000000000000
    -3.7715549784227353    0.0000000000000000    0.0000000000000000
     0.0000000000000000   -7.9782841820908930    0.0000000000000000
     0.0000000000000000    3.9891420910454465   12.2554423005355471
 Sr  Co  O  
   6   6  12
Selective dynamics
Direct
 -0.0000000000000000 -0.0518701780014591 -0.0153668291462256   T   T   T
  0.0000000000000000  0.1472533172876039  0.3494858976303619   T   T   T
 -0.0000000000000000  0.3271533699586102  0.6551385187880239   T   T   T
  0.0000000000000000  0.5365033488552334 -0.0153668291462256   T   T   T
 -0.0000000000000000  0.7022325803427574  0.3494858976303619   T   T   T
  0.0000000000000000  0.8279851488294119  0.6551385187880239   T   T   T
  0.5000000000000000  0.8349656709113551  0.1699313418227091   T   T   T
  0.5000000000000000  0.0021416477646819  0.5042832955293653   T   T   T
  0.5000000000000000  0.1614702261242941  0.8229404522485910   T   T   T
  0.5000000000000000  0.3420476200258190  0.1840952400516377   T   T   T
  0.5000000000000000  0.4973893072559747  0.4947786145119505   T   T   T
  0.5000000000000000  0.6576734403855298  0.8153468807710617   T   T   T
  0.5000000000000000  0.7575779409846150  0.0151558819692288   T   T   T
 -0.0000000000000000  0.8340058057321229  0.1680116114642448   T   T   T
  0.5000000000000000  0.9118823868641792  0.3237647737283573   T   T   T
 -0.0000000000000000  0.0007007577655482  0.5014015155310979   T   T   T
  0.5000000000000000  0.2670007469552942  0.4957896647965774   T   T   T
  0.5000000000000000  0.0855812877098472  0.6711625754196960   T   T   T
  0.5000000000000000  0.3978976265602955  0.8573773517350506   T   T   T
  0.5000000000000000  0.4166332575131484  0.3332665150262979   T   T   T
  0.5000000000000000  0.7287889178412825  0.4957896647965774   T   T   T
  0.5000000000000000  0.5745981760521985  0.6491963521043982   T   T   T
 -0.0000000000000000  0.6642411990672719  0.8284823981345459   T   T   T
  0.5000000000000000  0.9594797251747536  0.8573773517350504   T   T   T
