Sr Co O 
 1.0000000000000000
    -3.7591346908636565    0.0000000000000000    0.0000000000000000
     0.0000000000000000   -8.3427545384649680   -0.1426571223840421
     0.0000000000000000    4.3741264574722978   11.8236175247033692
 Sr  Co  O  
   6   6  12
Selective dynamics
Direct
 -0.0000000000000000  0.0128084196416483 -0.0172272782520245   T   T   T
 -0.0000000000000000  0.2095701486442713  0.3453916431142234   T   T   T
 -0.0000000000000000  0.3556509645337523  0.6766238868198996   T   T   T
 -0.0000000000000000  0.4666448476034895 -0.0322396748248212   T   T   T
 -0.0000000000000000  0.6422582364275330  0.3523985157857251   T   T   T
 -0.0000000000000000  0.8152428124934780  0.6759631095605805   T   T   T
  0.5000000000000002  0.8993674693533432  0.1974527654290469   T   T   T
  0.5000000000000002 -0.0255016810410726  0.4744381375288753   T   T   T
  0.5000000000000002  0.1522384739242271  0.8206952947532303   T   T   T
  0.5000000000000002  0.3186270958916218  0.1678945421722471   T   T   T
  0.5000000000000002  0.5237625337978675  0.5142339699820994   T   T   T
  0.5000000000000002  0.6807803619031559  0.8418276085907180   T   T   T
  0.5000000000000002  0.0542469341733057  0.1298893601668357   T   T   T
  0.5000000000000002  0.8031785828525075  0.3003618152024486   T   T   T
 -0.0000000000000000  0.0812997289041050  0.4962394437626954   T   T   T
 -0.0000000000000000  0.1504647195989948  0.8143272626514889   T   T   T
  0.5000000000000002  0.3891715761472917  0.8356080693622958   T   T   T
 -0.0000000000000000  0.3591019125397323  0.1273027162241577   T   T   T
  0.5000000000000002  0.4036710401302147  0.3334787322709191   T   T   T
 -0.0000000000000000  0.4806255533921974  0.5066400916562033   T   T   T
  0.5000000000000002  0.7818712253192825  0.5270966058672659   T   T   T
  0.5000000000000002  0.5628503085031373  0.6769141294550993   T   T   T
 -0.0000000000000000  0.7004785191904827  0.8996739404785790   T   T   T
  0.5000000000000002  0.9315904448522317  0.8350153371545945   T   T   T
