Sr Co O 
 1.0000000000000000
    -3.5914225566559823    0.0000000000000000    0.0000000000000000
     0.0000000000000000   -8.7390239315219276   -0.0501020568582960
     0.0000000000000000    4.4631873584298045   11.9571150333014025
 Sr  Co  O  
   6   6  12
Selective dynamics
Direct
 -0.0000000000000000  0.0033535646897840 -0.0318314652648408   T   T   T
 -0.0000000000000000  0.1645573417148289  0.3433128234795209   T   T   T
 -0.0000000000000000  0.3292293050345521  0.6733377504276611   T   T   T
 -0.0000000000000000  0.5022649304176456 -0.0228865310822074   T   T   T
 -0.0000000000000000  0.6717242887025924  0.3665101504584904   T   T   T
 -0.0000000000000000  0.8378411186185575  0.6671326453232858   T   T   T
  0.4999999999999997  0.7640822446358285  0.2093212041593375   T   T   T
  0.4999999999999997  0.0151319272507126  0.4983219309213287   T   T   T
  0.4999999999999997  0.1718042975872863  0.8214118459480230   T   T   T
  0.4999999999999997  0.3359779987025971  0.1598154248569091   T   T   T
  0.4999999999999997  0.4734064306939054  0.5104277156114964   T   T   T
  0.4999999999999997  0.6669124461776536  0.8258992682234835   T   T   T
  0.4999999999999997  0.9507667298345792  0.3257157219979727   T   T   T
  0.4999999999999997  0.2332053946525540  0.4980233701568765   T   T   T
  0.4999999999999997  0.0905793270518030  0.6548820882820457   T   T   T
 -0.0000000000000000  0.2107525404355974  0.8844474215439508   T   T   T
  0.4999999999999997  0.4261108533479536  0.8259124735492195   T   T   T
 -0.0000000000000000  0.2494398928482248  0.1644617790473852   T   T   T
  0.4999999999999997  0.5447594388725607  0.1337908914611645   T   T   T
 -0.0000000000000000  0.4637920179140669  0.4409186958346997   T   T   T
  0.4999999999999997  0.7973782697396343  0.4910189333677458   T   T   T
  0.4999999999999997  0.6113867007600872  0.6634844433464699   T   T   T
 -0.0000000000000000  0.7129472604397924  0.8982848841343923   T   T   T
  0.4999999999999997  0.9392623549272920  0.8316198474217407   T   T   T
