Sr Co O 
 1.0000000000000000
     3.8787808632670591   -0.0142602256633032    3.9358328360670090
     0.0863201022315472   -4.4062364173751503   -4.0001923718827390
     7.5959041907907219    8.3790200096326615   -7.7629793299289087
 Sr  Co  O  
   6   6  12
Selective dynamics
Direct
  0.0588097700167079  0.1772149342130203  0.0251911885971489   T   T   T
  0.2627732604077753  0.5825596127703777  0.7870144267412459   T   T   T
  0.5825843597947419  0.2214951018159021  0.6340147855364692   T   T   T
 -0.0757980789532738 -0.1005954509564789  0.4960730228671559   T   T   T
  0.2954725106463842  0.6464252239602447  0.3396385172767230   T   T   T
  0.7157567436277269  0.4797501493638026  0.1592735852972763   T   T   T
  0.4335824408584039  0.8822738519039668  0.1306726245234342   T   T   T
  0.5473220503879632  0.1351891419382950  0.8924333789010314   T   T   T
 -0.0520622636666382 -0.0127326760035603  0.7451523424934160   T   T   T
  0.3290142405752359  0.5499356266050491  0.5696684037313862   T   T   T
  0.6408977751865497  0.3042766441323015  0.3734243504519436   T   T   T
  0.0027570950661059  0.0151937430331427  0.2696085965502376   T   T   T
  0.4818309986793459  0.1311571922765030  0.0248219427644249   T   T   T
  0.9052665637210836  0.2059122513182687  0.8571272328994433   T   T   T
  0.6518932163372488  0.6738914876624672  0.6901480828546248   T   T   T
  0.0529327024438468  0.2621643328370953  0.6417853493159910   T   T   T
  0.3075767675490912  1.0100451528759706  0.7809287013267270   T   T   T
  0.3387483721882644 -0.1621088599418253  0.5159848587307756   T   T   T
  0.5364999686981438  0.4241412084007991  0.4904048591334972   T   T   T
  0.3930954582562273  0.0895458704201878  0.2545164820023060   T   T   T
  0.8337612005547598  0.6686480555647389  0.3278882448587740   T   T   T
  0.9340723458442768  0.2096567192774268  0.3745726724255301   T   T   T
  0.8008369575510415  0.9083730212941067  0.1409294075503028   T   T   T
  0.1890421056392158  0.5309210390918108  0.1453936017073343   T   T   T
