Sr Co O 
 1.0000000000000000
     3.8906999182527109   -0.0563267288220687    3.8667952165332995
     3.8772155083381361   -4.0106068132757722   -3.7964719356095817
     3.8201994095569338    8.0787659581526334   -3.9105828048360953
 Sr  Co  O  
   6   6  15
Selective dynamics
Direct
  0.0177074385249613  0.0408779857100764  0.0006617802433760   T   T   T
  0.4866456299973977  0.6426074762471844  0.8228915593636789   T   T   T
 -0.0066506114050227  0.3220178679025961  0.6667283999544537   T   T   T
  0.4812106739832440 -0.0343294247058466  0.5126974784568767   T   T   T
 -0.0080923630029922  0.6528978059236239  0.3543441053268466   T   T   T
  0.4966756755292359  0.3717547555466296  0.1667974339671036   T   T   T
  0.5222305068954161  0.8543894342965932  0.1606689584999055   T   T   T
  0.0110461787972693  0.5268377766976423 -0.0103954570897813   T   T   T
  0.4864570342969489  0.1692038241929957  0.8379317776709215   T   T   T
  0.0046010014117459  0.8145007723140756  0.6769892842248585   T   T   T
  0.4966927371887396  0.4646453272716008  0.5089581779600287   T   T   T
 -0.0246960995176857  0.1489635689276712  0.3542259051067654   T   T   T
  0.3084034454814402  0.6955807986842167  0.0642508601462295   T   T   T
  0.5019011496165903  0.0437748969132383  0.0306232224039914   T   T   T
  0.7462083111439053  0.3184895879547040  0.8953222037731140   T   T   T
 -0.0659909816140066  0.7171486139238799  0.8615426198008849   T   T   T
  0.2334628468369053  0.3523212335803801  0.8976396760531151   T   T   T
  0.2687971971622263 -0.0290388434013441  0.7625168639653894   T   T   T
  0.5199648699976901  0.2733354390245854  0.6586369849430106   T   T   T
  0.7382184422127596  0.6731844497443255  0.6050109115592619   T   T   T
 -0.0104454058108820 -0.0136431778858397  0.5194459959858483   T   T   T
  0.2429446800951684  0.6130409184659197  0.5823388476994605   T   T   T
  0.2665660252299057  0.2717192519050809  0.3822664878396271   T   T   T
  0.4891560097533642  0.7128991365417424  0.3135479034723804   T   T   T
  0.7505193015260228  0.3518105863534594  0.4111382613777650   T   T   T
  0.8292606426060766 -0.0320887697577412  0.2320156682456928   T   T   T
 -0.0327941526484323  0.4104317602668645  0.1478706081080565   T   T   T
