Sr Co O 
 1.0000000000000000
     3.9866380946057487   -0.0281753700350386    3.9668445246010573
     0.0463237539569102   -4.0022727034710375   -3.9852729418336503
     7.7162256602928894    7.6719750888469038   -7.7320670314504891
 Sr  Co  O  
   6   6  14
Selective dynamics
Direct
 -0.0756210951626347 -0.0498980638601499 -0.0047583772432200   T   T   T
  0.3182564213097684  0.6626832381443354  0.8234729517937338   T   T   T
  0.6927841929072462  0.3410058036882318  0.6552581320058987   T   T   T
  0.0521918434596206  0.0273737569240982  0.5038586936959308   T   T   T
  0.3675352094340901  0.6852708674599782  0.3534555007545849   T   T   T
  0.6474907617890415  0.3066938352272643  0.1792528496494303   T   T   T
  0.2413536008411777  0.5658267337974160  0.0856488775778030   T   T   T
  0.6830576552423701  0.3446304393736888  0.8971632724377150   T   T   T
  0.0460832361342624  0.0286506778442847  0.7606256047527570   T   T   T
  0.3378983407638796  0.6672477506572159  0.5831171073337622   T   T   T
  0.6947896544502710  0.3534643690047019  0.4175855312730322   T   T   T
  0.0290744961499253  0.0355058901521734  0.2649366211940762   T   T   T
 -0.0742049019272421  0.4965883688436784  0.0131607871913548   T   T   T
  0.3114485253224467  0.1963351668746068  0.8820178902673943   T   T   T
  0.8132547180110788  0.6610777737864155  0.8156926824334587   T   T   T
  0.7715931636381075  0.1032486174958608  0.8325877029318022   T   T   T
  0.1765050318722744  0.3640897632202362  0.6745275925724425   T   T   T
  0.2368920265098916  0.8917628077286586  0.6742463635320466   T   T   T
  0.0100828015793315  0.5581520194868338  0.4964482740428260   T   T   T
  0.5817541136365602 -0.0168725138981477  0.5186829427976170   T   T   T
  0.4897379023473390  0.4694193548161286  0.5047811598517430   T   T   T
  0.3647615142364785  0.1309230161814254  0.3383913839693692   T   T   T
  0.8165420735517690  0.6919607006003994  0.3056227972924117   T   T   T
  0.9006895639384545  0.2457499646222285  0.3283294060864981   T   T   T
  0.5547567867170592  0.8495080134910727  0.1204395879803792   T   T   T
  0.1779589574510031  0.2229348782925742  0.1421213644164338   T   T   T
