Sr Co O 
 1.0000000000000000
     4.0459949733989173    0.0508532027889312    4.0214703385056945
    -0.0508532027889313   -4.0459949733989111   -4.0214703385056945
     7.9263324750071522    7.9263324750071540   -7.7763627225298864
 Sr  Co  O  
   6   6  13
Selective dynamics
Direct
 -0.0050399977564478  0.0050399977564478 -0.0014242002880533   T   T   T
  0.3416260949296250  0.6583739050703743  0.8100405347874924   T   T   T
  0.6593507986959948  0.3406492013040082  0.6334109610433398   T   T   T
  0.0007312380239899 -0.0007312380239879  0.4773260401372135   T   T   T
  0.3307550161096872  0.6692449838903115  0.3496587794081544   T   T   T
  0.6788683505552957  0.3211316494447022  0.1836354964964143   T   T   T
  0.3462807621651482  0.6537192378348523  0.1186556880832853   T   T   T
  0.6532921338977734  0.3467078661022281  0.8981222617424444   T   T   T
 -0.0339945119474933  0.0339945119474932  0.7466908330476720   T   T   T
  0.3458073530356029  0.6541926469643986  0.5754272278328277   T   T   T
  0.6690183066781550  0.3309816933218431  0.4065365862643899   T   T   T
  0.0108231844845711 -0.0108231844845719  0.2382868541933779   T   T   T
  0.1697809847526938  0.8302190152473080  0.1159495493446470   T   T   T
  0.8287077354549905  0.1712922645450045  0.8570008740706411   T   T   T
  0.6567990822482839  0.8097524861192885  0.6651052654853452   T   T   T
  0.1902475138807143  0.3432009177517156  0.6651052654853449   T   T   T
  0.1107990660617235  0.8892009339382768  0.8336653604662988   T   T   T
  0.0169559165917327  0.5246290393892082  0.5097350563305072   T   T   T
  0.4753709606107911 -0.0169559165917340  0.5097350563305081   T   T   T
  0.5104229266001646  0.4895770733998358  0.4825828491141539   T   T   T
  0.3291666056567870  0.1413375948542112  0.3160080765038632   T   T   T
  0.8586624051457871  0.6708333943432134  0.3160080765038644   T   T   T
  0.8306127983685908  0.1693872016314073  0.3360969440441975   T   T   T
  0.6990889725441132  0.8408003221910559  0.1449869580017688   T   T   T
  0.1591996778089443  0.3009110274558849  0.1449869580017676   T   T   T
