Sr Co O 
 1.0000000000000000
     3.7910458884425244    0.0367227432238183    4.2926558800349497
     3.7138751880452872   -3.7393072115311723   -4.2553326363766208
     3.8620444769808993    7.6701433664761982   -4.2925142540931587
 Sr  Co  O  
   6   6  13
Selective dynamics
Direct
 -0.0094226385083381  0.0533746671649191  0.0005342674734523   T   T   T
  0.4762843423091795  0.6697867552098029  0.8266795998791341   T   T   T
  0.0050997879904555  0.2930642380968075  0.6404173036049748   T   T   T
  0.5126615621712826 -0.0225052945354044  0.4887309693891624   T   T   T
  0.0267155905208679  0.6624685497574713  0.3457293412724947   T   T   T
  0.4923004979687579  0.3478472814127354  0.1962028946232286   T   T   T
  0.5269098862499157  0.8415695561607862  0.1804991537485850   T   T   T
 -0.0238119221021744  0.5783022856954719  0.0141982162524466   T   T   T
  0.4912544179819170  0.1800034296039637  0.8192941501149882   T   T   T
 -0.0095005982521577  0.7705763413327389  0.6627996788580651   T   T   T
  0.5119452408959220  0.4842445975351660  0.5063457075342837   T   T   T
 -0.0076044536161096  0.1732763486891796  0.3330274268946683   T   T   T
  0.2568641855227022 -0.0379872396734775  0.1982447416208962   T   T   T
  0.6782988282124025  0.6788614920226398  0.0650445791733329   T   T   T
  0.0759405661386337  0.7575397303653953  0.8679389387800880   T   T   T
  0.2705097511847360  0.3097386623804923  0.8757278602352784   T   T   T
  0.6873475932803398  0.0304244192121173  0.7569331044473776   T   T   T
  0.7281019202796850  0.5530378798355661  0.6576219456407074   T   T   T
 -0.0430225108809194 -0.0477040124071712  0.5009512326385704   T   T   T
  0.2576110894201645  0.6424109161235781  0.5880365494915432   T   T   T
  0.2779507192520629  0.2786888472038845  0.4383433207379770   T   T   T
  0.5034671516868280  0.6686571418197682  0.3396435915277436   T   T   T
  0.7602939913531129  0.3363664212541829  0.4209259770379529   T   T   T
  0.7470011864415096  0.0622716402738647  0.2022948645300838   T   T   T
  0.0568037280949371  0.4023519647743803  0.1571679020652138   T   T   T
