Sr Co O 
 1.0000000000000000
     3.7364715551936269    0.0383882224515000    3.8736699146227731
     3.6516034957199821   -4.1729238021942194   -3.8224417001234547
     3.7056151634074053    8.3560565043627886   -3.7716469766071166
 Sr  Co  O  
   6   6  13
Selective dynamics
Direct
 -0.0188657948520824  0.0009659878123269 -0.0043612092623766   T   T   T
  0.4932882481126554  0.6431747029246108  0.8239445348986252   T   T   T
  0.0117171810258826  0.3252255537378458  0.6622060124343315   T   T   T
  0.5051725726635808  0.0063105878823835  0.5146354099310898   T   T   T
 -0.0067384445879369  0.7039136826465583  0.3429580214833398   T   T   T
  0.4804669145075595  0.3513741109664775  0.1573059811259962   T   T   T
  0.5447234867808715  0.8420558614282649  0.1595336043231362   T   T   T
 -0.0128913870243128  0.4960043214769252 -0.0107380861063435   T   T   T
  0.4877562216995459  0.1472017860700269  0.8435824638947509   T   T   T
  0.0016767396351056  0.8209264263057930  0.6819153759192510   T   T   T
  0.4715493904989750  0.5068169592636582  0.4723736230320698   T   T   T
 -0.0213613243920619  0.2300122241358550  0.3221385444509360   T   T   T
  0.4515243299302820  0.0067310508548607  0.0140168103965937   T   T   T
  0.6994328146283461  0.6261458688543776  0.0460487877506485   T   T   T
  0.0153589182190454  0.6559541109466377  0.8331690154333545   T   T   T
  0.2205996760141267  0.3127663334806974  0.9101753551183548   T   T   T
  0.5245777967010875  0.2974128610267001  0.6968563787435029   T   T   T
  0.7326619400756658 -0.0346004068941566  0.7741002729965483   T   T   T
 -0.0131874390399303 -0.0254236967995905  0.5395990597588302   T   T   T
  0.2752514061433476  0.6763479036590757  0.5975438084705765   T   T   T
  0.3100906385498171  0.2595086743535623  0.3828931361440261   T   T   T
  0.4548849656167279  0.7054020678882587  0.3182274344910556   T   T   T
  0.8063843041565162  0.4108021078368665  0.4454502877781399   T   T   T
  0.8393253308964337 -0.0048602283002409  0.2378211246196699   T   T   T
 -0.0033983615389646  0.3731644025202122  0.1552709731137788   T   T   T
