Sr Co O 
 1.0000000000000000
     3.8619063995258052   -0.0087989298746644    3.8558479080133594
     3.9381690995874861   -3.7709123976127858   -3.9233443329932589
     4.1414543265413455    7.9856719913176679   -4.1582852038140317
 Sr  Co  O  
   6   6  15
Selective dynamics
Direct
 -0.0144338111349459  0.0236886163214942  0.0221085205719827   T   T   T
  0.4875621691370261  0.7506849359227120  0.8383052678425656   T   T   T
  0.0124378308629767  0.2493150640772881  0.6616947321574367   T   T   T
  0.5144338111349475 -0.0236886163214946  0.4778914794280179   T   T   T
 -0.0019058070709548  0.6400598321849713  0.3280391893883292   T   T   T
  0.5019058070709568  0.3599401678150294  0.1719608106116721   T   T   T
  0.5115489922653264  0.8337569110194866  0.1620069893600708   T   T   T
  0.0115791384326761  0.5200001499267130  0.0050060670415990   T   T   T
  0.5131522040064779  0.2374283878721269  0.8646518661380169   T   T   T
 -0.0131522040064772  0.7625716121278717  0.6353481338619841   T   T   T
  0.4884208615673244  0.4799998500732867  0.4949939329584014   T   T   T
 -0.0115489922653274  0.1662430889805133  0.3379930106399298   T   T   T
  0.2170940850573323  0.7167501241558083  0.1017137478481438   T   T   T
  0.4811031169235686  0.0405839730009304  0.0139555543297856   T   T   T
  0.7409261497529814  0.6655239679089675  0.0525575710858866   T   T   T
  0.8289453083735148  0.3432828725614765  0.8889325484512681   T   T   T
  0.0143886396186188  0.8810436031751671  0.7929268499081826   T   T   T
  0.2974361205343392  0.4282327528809482  0.9221469444094326   T   T   T
  0.4856113603813821  0.1189563968248311  0.7070731500918177   T   T   T
  0.6710546916264860  0.6567171274385217  0.6110674515487338   T   T   T
  0.0188968830764324 -0.0405839730009313  0.4860444456702150   T   T   T
  0.2025638794656610  0.5717672471190491  0.5778530555905687   T   T   T
  0.2829059149426685  0.2832498758441916  0.3982862521518577   T   T   T
  0.4908409813832281  0.6741972296927705  0.3252094790347361   T   T   T
  0.7590738502470187  0.3344760320910309  0.4474424289141154   T   T   T
  0.7500000000000007 -0.0000000000000007  0.2500000000000008   T   T   T
  0.0091590186167749  0.3258027703072302  0.1747905209652653   T   T   T
