Sr Co O 
 1.0000000000000000
     3.9212590383896884   -0.0243793551107936    3.8269729236564376
     3.6999720489017194   -4.5124312847900523   -3.5979136957329749
     3.6727689556962355    9.0458087948256392   -3.6212503923193942
 Sr  Co  O  
   6   6  13
Selective dynamics
Direct
  0.0174432929188952  0.0081276007250763 -0.0034402310882558   T   T   T
  0.4934766450827230  0.6958367115397254  0.8068277933889620   T   T   T
 -0.0174160225262436  0.3674971999022388  0.6449853874783076   T   T   T
  0.4675580166736777 -0.0339691482725004  0.5017041065050709   T   T   T
 -0.0065454226325473  0.6265360374315694  0.3668245622256802   T   T   T
  0.5082559451296121  0.3199419122592519  0.2081673059751081   T   T   T
  0.5380082474711944  0.8075888768121886  0.1762374582664178   T   T   T
  0.0800910480007176  0.5362327451157025  0.0092648556320224   T   T   T
  0.4922810575233735  0.1664534910549923  0.7848300513602797   T   T   T
 -0.0289072092078184  0.8662186561343439  0.6701526365757081   T   T   T
  0.4849171148617265  0.4809028779622691  0.5094126420422709   T   T   T
 -0.0280537249848801  0.1264510416667386  0.3539129308556399   T   T   T
  0.3249575310539953  0.7499512926313664  0.0375666060200057   T   T   T
 -0.0573387484871084  0.6011046262108192  0.8655133346812259   T   T   T
  0.2272912735381497  0.0066149328571221  0.7821370157384290   T   T   T
  0.4889128962115061  0.3421978610788570  0.6753205380391493   T   T   T
  0.7429003160314226  0.0093438957146969  0.8194462615094688   T   T   T
  0.7090346047518921  0.6876169620601920  0.5915041180913716   T   T   T
 -0.0228992359922204 -0.0119601544840643  0.5016408827148497   T   T   T
  0.2200987016341614  0.6463437674063672  0.5787433623927687   T   T   T
  0.2754106951145464  0.2718520656037620  0.3989152602825350   T   T   T
  0.4894977515959014  0.6762222517092396  0.3139894393297676   T   T   T
  0.7537701895897727  0.3521618381502250  0.4155837532247822   T   T   T
  0.7804174483607400 -0.0005369222525122  0.2001994026402314   T   T   T
  0.0668376575518242  0.3679362713355787  0.1238938803082315   T   T   T
