Sr Co O 
 1.0000000000000000
     3.8959215829117508   -0.0000000000000000    3.8959215829117295
     3.8649386556621574   -3.9882386163922288   -3.8649386556621290
     3.8646553921971316    7.9757853570688892   -3.8646553921971138
 Sr  Co  O  
   6   6  16
Selective dynamics
Direct
 -0.0091233387048791  0.0028129319341980 -0.0156640050614278   T   T   T
  0.5004132766576703  0.6647660394652734  0.8196431229621292   T   T   T
 -0.0034579146099522  0.3333333333333324  0.6666666666666651   T   T   T
  0.5004132766576670  0.0019006272013929  0.5136902103712028   T   T   T
 -0.0091233387048783  0.6638537347324689  0.3489973383947607   T   T   T
  0.5160597295850666  0.3333333333333333  0.1666666666666665   T   T   T
  0.5523637221634810  0.8333333333333321  0.1666666666666663   T   T   T
 -0.0066312434753741  0.4814272515053746 -0.0042108638569958   T   T   T
  0.4922440149283732  0.1678504340136358  0.8296197961664641   T   T   T
 -0.0039089896073529  0.8333333333333335  0.6666666666666666   T   T   T
  0.4922440149283723  0.4988162326530309  0.5037135371668686   T   T   T
 -0.0066312434753757  0.1852394151612923  0.3375441971903290   T   T   T
  0.4412556072900090 -0.0403576770363219  0.0214253608824759   T   T   T
  0.7841195509257854  0.6465470628427907  0.0967160987219086   T   T   T
  0.7359246160327829  0.3007670903950973  0.9260363498400589   T   T   T
  0.0010559156768847  0.6573391312209248  0.8489212611333630   T   T   T
  0.2629114469162783  0.3569283773817203  0.9274453053482615   T   T   T
  0.2432756701320172  0.0106469734400767  0.7511968028525283   T   T   T
  0.5137981789893690  0.3333333333333331  0.6666666666666656   T   T   T
  0.7427844888622973 -0.0134650582807623  0.7548780535732112   T   T   T
  0.7427844888622972  0.6801317249474295  0.5784552797601211   T   T   T
  0.0010559156768849  0.0093275354457430  0.4844120721999695   T   T   T
  0.2432756701320185  0.6560196932265924  0.5821365304808029   T   T   T
  0.2629114469162774  0.3097382892849456  0.4058880279850699   T   T   T
  0.4412556072900088  0.7070243437029888  0.3119079724508571   T   T   T
  0.7359246160327830  0.3658995762715699  0.4072969834932733   T   T   T
  0.7841195509257836  0.0201196038238777  0.2366172346114253   T   T   T
  0.0486851294593920  0.3333333333333330  0.1666666666666663   T   T   T
