Sr Co O 
 1.0000000000000000
    -3.6437106624455393    0.0000000000000000    0.0000000000000000
     0.0000000000000000    4.4526468390481337    3.6682491445451260
     0.0000000000000000    9.2846713878037388  -11.5138158682902088
 Sr  Co  O  
   5   5  10
Selective dynamics
Direct
 -0.0000000000000000  0.0451441253346767  0.0107256249371685   T   T   T
 -0.0000000000000000  0.3373346579432510  0.8069278729766207   T   T   T
 -0.0000000000000000  0.7477585168894669  0.5629279338565015   T   T   T
 -0.0000000000000000  0.2211968183854506  0.3971909624323264   T   T   T
 -0.0000000000000000  0.6875427507302880  0.2113599118597949   T   T   T
  0.4999999999999994  0.5546452115164030 -0.0111449073421623   T   T   T
  0.4999999999999994  0.8229437913985129  0.8337757995764691   T   T   T
  0.4999999999999994  0.2831006062768689  0.5937252569908905   T   T   T
  0.4999999999999994  0.7149499503489319  0.3849779053871709   T   T   T
  0.4999999999999994  0.2025820120003369  0.2037346256924654   T   T   T
  0.4999999999999994  0.2909627359187202  0.9205659023655294   T   T   T
 -0.0000000000000000  0.8432515604304013  0.8314680050057598   T   T   T
 -0.0000000000000000  0.3549059843532690  0.6494850016567209   T   T   T
  0.4999999999999994  0.0132764729204587  0.5209952639106651   T   T   T
  0.4999999999999994  0.4962394468143517  0.4883981462354569   T   T   T
 -0.0000000000000000  0.7597521952017322  0.3951082247438411   T   T   T
  0.4999999999999994  0.4508545027317445  0.2940677684855179   T   T   T
  0.4999999999999994  0.9449066990726143  0.2853334911686345   T   T   T
 -0.0000000000000000  0.2421359107277856  0.1519028807274868   T   T   T
  0.4999999999999994  0.7865160989004438  0.0684745030100620   T   T   T
