Sr Co O 
 1.0000000000000000
    -3.6228810319636415    0.0000000000000000    0.0000000000000000
     0.0000000000000000    4.0671811103808722    3.9995810261167120
     0.0000000000000000    8.1528927189780092  -12.0167800824389150
 Sr  Co  O  
   5   5  11
Selective dynamics
Direct
 -0.0000000000000000 -0.0791644455224603  0.0039539152256889   T   T   T
 -0.0000000000000000  0.3926641358678114  0.7817503310005272   T   T   T
 -0.0000000000000000  0.8335810258287857  0.6039405734270883   T   T   T
 -0.0000000000000000  0.2334548465684872  0.4101209064050914   T   T   T
 -0.0000000000000000  0.6267006200914577  0.2073746172655198   T   T   T
  0.4999999999999999  0.4427274640492598 -0.0194222415120982   T   T   T
  0.4999999999999999  0.8853655264071167  0.8072703865145053   T   T   T
  0.4999999999999999  0.3369906097067759  0.5959605990572997   T   T   T
  0.4999999999999999  0.7311340253708649  0.4014276111844589   T   T   T
  0.4999999999999999  0.1404731797381206  0.2155194026511011   T   T   T
  0.4999999999999999  0.1307297377930019  0.9232044291286206   T   T   T
  0.4999999999999999  0.6538024679336414  0.8893573915443345   T   T   T
  0.4999999999999999  0.6320955978133648  0.7038065776499228   T   T   T
  0.4999999999999999  0.0955701851966134  0.7258696931022598   T   T   T
 -0.0000000000000000  0.3018283919265754  0.6010345657588994   T   T   T
  0.4999999999999999  0.0036914064715560  0.4919018260595145   T   T   T
  0.4999999999999999  0.5449452461889247  0.4935391195284068   T   T   T
  0.4999999999999999  0.4525666772333362  0.3087939902166174   T   T   T
  0.4999999999999999  0.9146641547037004  0.3058240030852010   T   T   T
 -0.0000000000000000  0.1559934793829854  0.1629134202195900   T   T   T
  0.4999999999999999  0.6701856343889966  0.0858589019964282   T   T   T
