Sr Co O 
 1.0000000000000000
     3.8120961113108192   -0.1021060575802572    4.3008151701639559
    -0.0191733676097077   -3.8531571768125681   -4.1960758318133013
     7.0958573412336108    7.7025229646643147   -8.3109717422672222
 Sr  Co  O  
   6   6  12
Selective dynamics
Direct
 -0.0080529977113640 -0.0010378076196342 -0.0003820150171277   T   T   T
  0.2910825166175524  0.6170682759576207  0.8399582583179006   T   T   T
  0.6873541164302227  0.2960658185465895  0.6617732141951829   T   T   T
  0.0008338581226985 -0.0098898142037246  0.5044018688731791   T   T   T
  0.3704910387321971  0.6847239674963093  0.3560544731247985   T   T   T
  0.7137835122557930  0.3717469671366603  0.1844346789302414   T   T   T
  0.3699532191569946  0.6713911935214719  0.0770919132171701   T   T   T
  0.6544114506763369  0.3107569152042374  0.9356605683559218   T   T   T
  0.1227736045686524  0.0330234998022678  0.7454759413661834   T   T   T
  0.3433107766100847  0.6481267984817236  0.5906194476848617   T   T   T
  0.6329168740658563  0.2980213051350261  0.4102567353004784   T   T   T
 -0.0255172220395602  0.0020753791245494  0.2681826786386037   T   T   T
  0.4812325168855574  0.4686715777837293  0.0022230043001203   T   T   T
  0.2835286565265748  0.0339517604820015  0.8731203478205098   T   T   T
  0.8179857232924116  0.1900571023006972  0.8556328394965746   T   T   T
  0.1282592933038061  0.3093253413061549  0.6646452593286108   T   T   T
  0.1628112264028796  0.7911439123226879  0.6644057023466905   T   T   T
  0.5347468766348965 -0.0139551670266803  0.5133303368869351   T   T   T
  0.4962573506715727  0.4869418710377736  0.5234989653593329   T   T   T
  0.3443392516858843  0.0949343722735269  0.2876069517963190   T   T   T
  0.7989897275544886  0.6645560300286715  0.3489827440334783   T   T   T
  0.9192555834032738  0.2436811123498273  0.3483559014767421   T   T   T
  0.7052034792526930  0.9269326836567552  0.1461876530216065   T   T   T
  0.0073833021737924  0.5483535525747483  0.0318157963509492   T   T   T
