Sr Co O 
 1.0000000000000000
     3.8619004430150294   -0.0495964905984052    3.8567755546224260
     3.6223554735517323   -4.4989225998811548   -3.5551071053823029
     3.5448142556817572    9.0183421441180212   -3.6777131753611472
 Sr  Co  O  
   6   6  13
Selective dynamics
Direct
  0.0101001616044689 -0.0065726186369409  0.0062027829767296   T   T   T
  0.4775000047567450  0.6945828328728492  0.8196681474918602   T   T   T
 -0.0352038534005434  0.3736537434433578  0.6459112387602476   T   T   T
  0.4831074478542213 -0.0195724832538799  0.5027312643864936   T   T   T
  0.0072280490975682  0.6342018685135673  0.3400064305421854   T   T   T
  0.5155421002037692  0.3305622784516810  0.1759289124232875   T   T   T
  0.5558684836439742  0.8390464332233493  0.1732727871169686   T   T   T
  0.0476756867663641  0.4889691294837507 -0.0090080145710444   T   T   T
  0.3998880878682279  0.2242491524120189  0.8193818864479757   T   T   T
 -0.0065266377715989  0.8482956955338820  0.6465703941365096   T   T   T
  0.4909131712234557  0.4788862649828121  0.5014326632495069   T   T   T
 -0.0082915775422366  0.1379847619465250  0.3533382911882254   T   T   T
  0.4773540311528056 -0.0338492614450053  0.0375928760635272   T   T   T
 -0.0454579196029384  0.6363389510489839  0.8692954572902516   T   T   T
  0.4010957081976454  0.4390017289123000  0.9651120384941443   T   T   T
  0.1901025883257696  0.0065347018050905  0.7848201995656811   T   T   T
  0.5074099054221629  0.3151062471353098  0.6701811487189859   T   T   T
  0.6906404302222775  0.7048822745559417  0.6090649444008762   T   T   T
 -0.0194663481764494  0.0062127550148436  0.5068671873563185   T   T   T
  0.2153495733936091  0.6281893191763849  0.5683209627791486   T   T   T
  0.3006050283809574  0.2698381243310725  0.3813063490249157   T   T   T
  0.4611247036474720  0.6970270154710897  0.2959613514588865   T   T   T
  0.7694428809936105  0.3612476590565046  0.4107178014318620   T   T   T
  0.8952432673101998 -0.0828846305754204  0.2185831976614044   T   T   T
 -0.0312449328561824  0.3614012154043054  0.1234064831431292   T   T   T
