Sr Co O 
 1.0000000000000000
    -3.8137281343055469   -0.0000000000000000    0.0000000000000000
     0.0000000000000000    3.9051500082716668    3.9051500082716664
    -0.0000000000000000    7.6610599135699546  -11.5662099218416241
 Sr  Co  O  
   5   5  11
Selective dynamics
Direct
 -0.0000000000000000 -0.0203037731348310  0.0007865385317147   T   T   T
  0.0000000000000000  0.3201514281890444  0.8000000000000003   T   T   T
  0.0000000000000000  0.7789096883334524  0.5992134614682860   T   T   T
 -0.0000000000000000  0.2472860890574963  0.3938322679263512   T   T   T
  0.0000000000000000  0.6534538211311460  0.2061677320736495   T   T   T
  0.5000000000000002  0.4898393974636329  0.0013487803432326   T   T   T
  0.5000000000000002  0.8762341831772281  0.8000000000000006   T   T   T
  0.5000000000000002  0.2884906171204000  0.5986512196567679   T   T   T
  0.5000000000000002  0.7205075688119732  0.3993534694005362   T   T   T
  0.5000000000000002  0.1211540994114387  0.2006465305994646   T   T   T
 -0.0000000000000000  0.4905500141301743 -0.0029009081686988   T   T   T
  0.5000000000000002  0.1704379389284773  0.9097808511427732   T   T   T
 -0.0000000000000000  0.7684041798180488  0.8000000000000015   T   T   T
  0.5000000000000002  0.0606570877857058  0.6902191488572270   T   T   T
  0.0000000000000000  0.2934509222988730  0.6029009081686992   T   T   T
  0.5000000000000002  0.5110214744933955  0.5075091447428642   T   T   T
  0.0000000000000000  0.7736750749991382  0.4200049320349826   T   T   T
  0.5000000000000002  0.4417954500026521  0.2846931627440436   T   T   T
  0.5000000000000002  0.9571022872586081  0.3153068372559569   T   T   T
 -0.0000000000000000  0.1536701429641576  0.1799950679650179   T   T   T
  0.5000000000000002  0.8035123297505321  0.0924908552571364   T   T   T
