Sr Co O 
 1.0000000000000000
     3.9484947661136127   -0.0589406930085115    3.9548830007846636
     0.0457015677267261   -4.1044826839658466   -3.9413110477479525
     7.7511723127929049    8.1213402559266274   -7.8835633890457091
 Sr  Co  O  
   6   6  14
Selective dynamics
Direct
  0.0349095096580198  0.0600909798812284  0.0066094379762462   T   T   T
  0.2903924241672949  0.7016781921615552  0.8201248991905453   T   T   T
  0.6563614611975722  0.3332498479776013  0.6421314654695086   T   T   T
 -0.0222349509608184 -0.0490707052812250  0.4861805938591683   T   T   T
  0.3339828218181135  0.6312866868863810  0.3339327387340698   T   T   T
  0.7035631583467605  0.3528467931273350  0.1757279790233446   T   T   T
  0.4194778861956021  0.7375252145351947  0.0866645873581655   T   T   T
  0.6448390900706431  0.3062473693184664  0.9056720239396761   T   T   T
  0.0404702971271150  0.0973654149807874  0.7509037713390234   T   T   T
  0.2966973540536829  0.6078803163776597  0.5594733800932370   T   T   T
  0.6548539617043388  0.3021128423730032  0.4068027434272957   T   T   T
 -0.0131360035540838 -0.0242751951646537  0.2611979907533932   T   T   T
  0.5203265894698746  0.0478046786499437  0.0150421901966500   T   T   T
  0.3037740754612921  0.2628726942047205  0.8609446325870371   T   T   T
  0.9380176953768791  0.6085999663376018  0.9412938585732711   T   T   T
  0.7331405926233929  0.1232099546095512  0.7978817759994179   T   T   T
  0.2509114031761852  0.4161739299590490  0.6727989258236339   T   T   T
  0.0169819757515334  0.8065764449459879  0.6895325099473759   T   T   T
 -0.0449398609011703  0.3869251293526209  0.4979645557772134   T   T   T
  0.4257370931497451 -0.0585204905726353  0.5143316767488177   T   T   T
  0.5393295172326529  0.5103320081079340  0.4885111552403494   T   T   T
  0.3337623366095955  0.1852601586411261  0.3124062813606160   T   T   T
  0.8952574098255824  0.6506174063468253  0.3268815434813681   T   T   T
  0.7572386909722336  0.0894667026795964  0.3258267788201519   T   T   T
  0.7744679120176418  0.8168715621292724  0.1466074781811451   T   T   T
  0.1824841663576768  0.4302053457499885  0.1412216846222035   T   T   T
