Sr Co O 
 1.0000000000000000
     3.9552462369161536    0.0901382854707516    4.0691684641471975
     3.7804309249060504   -3.9011465994977161   -3.9858240090902877
     3.9467708498498495    7.8801275632584149   -3.8899602693458464
 Sr  Co  O  
   6   6  13
Selective dynamics
Direct
 -0.0196987366587973  0.0415916714542473  0.0018880896618761   T   T   T
  0.4748316264895780  0.7136170306934412  0.8358949313923061   T   T   T
 -0.0022425744160670  0.3201677966317695  0.6566209384219986   T   T   T
  0.5221902110355985 -0.0089470367881946  0.4954687453064034   T   T   T
  0.0400010258294519  0.6430329698574252  0.3567848980937877   T   T   T
  0.5213731545780532  0.3635766797969417  0.2062496217332976   T   T   T
  0.5426494582202752  0.8165018096039399  0.1667749577169702   T   T   T
  0.0471790508259997  0.5398878004086055  0.0333809096695928   T   T   T
  0.4318251078369116  0.1979858163244292  0.8317938894534248   T   T   T
  0.0081591924754429  0.8263633333891429  0.6511064471276716   T   T   T
  0.5108283094580892  0.5050648476190861  0.5143765568070732   T   T   T
 -0.0069673122220484  0.1728319061965266  0.3376184007200154   T   T   T
  0.2455458681601735 -0.2184535382148854  0.0748903330105142   T   T   T
  0.7388557491152280  0.6511739216421234  0.0431281678497701   T   T   T
  0.2322407852583336  0.3911265514440842  0.8902371920702732   T   T   T
  0.2083963273232447 -0.0057598007374406  0.7679305933125310   T   T   T
  0.7083502764114225  0.0879088447047275  0.7978889014255370   T   T   T
  0.7397074554064086  0.6371044269110414  0.6413873662628027   T   T   T
 -0.0284967902259331 -0.0317110370674198  0.4755841273339479   T   T   T
  0.2576372696437549  0.6355952873644288  0.6019022881549744   T   T   T
  0.2870338713706083  0.2966762517050801  0.4421272303849403   T   T   T
  0.4868704708751972  0.6871666302678257  0.3430235342775007   T   T   T
  0.7580718941944876  0.3558325133332442  0.4384130887946758   T   T   T
  0.7183056893888697  0.0466135779424252  0.2192768279611924   T   T   T
  0.0773525913746335  0.3350517791579396  0.1762519042283753   T   T   T
