Sr Co O 
 1.0000000000000000
     4.1010458265146923   -0.0008668521430906    3.9455209342885533
     3.8725488071667518   -4.0986164494361388   -3.7125183549130600
     3.8354509751345431    8.1255517789092782   -3.6757258210394963
 Sr  Co  O  
   6   6  13
Selective dynamics
Direct
  0.0173615911538269 -0.0315508196318365  0.0211338227135989   T   T   T
  0.4861295376970485  0.6321622343640090  0.8128213684148539   T   T   T
  0.0055239692029478  0.3305543992146289  0.6373805440462081   T   T   T
  0.5015640083575584  0.0246352544629460  0.4815158483999220   T   T   T
 -0.0103195112238785  0.6649350751774717  0.3632633841805298   T   T   T
  0.5104160963736104  0.3438691051378545  0.1860465426360432   T   T   T
  0.5330098826858719  0.8113935607143152  0.1436751577520538   T   T   T
  0.0129184976256164  0.4997814617418189  0.0496562424601347   T   T   T
  0.5605608275563532  0.1303685704461689  0.8452840988162380   T   T   T
 -0.0290697941934562  0.8573587667563163  0.6533639728484134   T   T   T
  0.4739631190062922  0.5376056255096635  0.4888518578965819   T   T   T
 -0.0159067998180913  0.1683141337484483  0.3340653310985311   T   T   T
  0.2732282169623926  0.6466546012520998  0.0372903303506662   T   T   T
  0.4618833810702992  0.0424645044400922  0.0131566984974288   T   T   T
  0.7593642296611524  0.6550920755037348  0.0067298479532949   T   T   T
  0.4488800725678559  0.2806568784212710  0.7116846198756821   T   T   T
  0.8871423632066894  0.0598196459844525  0.7965016031284712   T   T   T
  0.6954074243365288  0.7153117696015817  0.5975550843655828   T   T   T
  0.0422526672128905  0.0119352639649484  0.4905299618294400   T   T   T
  0.2064564292475130  0.6506744323208135  0.6132586720396394   T   T   T
  0.2436843530776849  0.3198947536355500  0.3922746321706141   T   T   T
  0.4412314171682654  0.6982979014771656  0.3183439365461562   T   T   T
  0.7317153364450802  0.3545045258929811  0.4261646527766751   T   T   T
  0.7895545691909166 -0.0316522272580522  0.2555413893234867   T   T   T
 -0.0269517129745538  0.2935851248410557  0.1572439070654241   T   T   T
