Sr Co O 
 1.0000000000000000
    -3.5412189565988457    0.0000000000000000    0.0000000000000000
     0.0000000000000000    3.9636665189547267    4.2659523366589953
     0.0000000000000000    8.0196281581828668  -12.8906177713534920
 Sr  Co  O  
   5   5  10
Selective dynamics
Direct
 -0.0000000000000000 -0.0982592172773333  0.0043640848433743   T   T   T
 -0.0000000000000000  0.2450919290592318  0.7978202820771438   T   T   T
 -0.0000000000000000  0.8097211338228983  0.5894756012117253   T   T   T
 -0.0000000000000000  0.3101492353851330  0.3891523649819232   T   T   T
 -0.0000000000000000  0.6805797584400839  0.2056660841286183   T   T   T
  0.4999999999999999  0.4127139489888500 -0.0139942014369964   T   T   T
  0.4999999999999999  0.7880546265388512  0.8125169008031281   T   T   T
  0.4999999999999999  0.3360457809563843  0.6014294395531492   T   T   T
  0.4999999999999999  0.8265232402548288  0.3893465635682827   T   T   T
  0.4999999999999999  0.1993754188903638  0.2017546419941156   T   T   T
  0.4999999999999999  0.0911243530064593  0.9228100992508078   T   T   T
  0.4999999999999999  0.5484518607984104  0.8712852691306204   T   T   T
  0.4999999999999999 -0.0732099737745575  0.7188084355466694   T   T   T
 -0.0000000000000000  0.2921723204130868  0.6440814999212899   T   T   T
  0.4999999999999999  0.5091004767303503  0.5129211456916318   T   T   T
 -0.0000000000000000  0.9132620306316540  0.4429059677208479   T   T   T
  0.4999999999999999  0.5092657160363646  0.2998215332528736   T   T   T
  0.4999999999999999  1.0026701744202495  0.2896578844228401   T   T   T
 -0.0000000000000000  0.2107428697594132  0.1434185804164425   T   T   T
  0.4999999999999999  0.6864244036576380  0.0767578069411404   T   T   T
