Sr Co O 
 1.0000000000000000
    -3.7392031405868873    0.0000000000000000    0.0000000000000000
     0.0000000000000000   -7.8914423855823017   -0.0000000000000000
     0.0000000000000000    3.9457211927911509   11.7613406927076376
 Sr  Co  O  
   6   6  12
Selective dynamics
Direct
  0.0000000000000000  0.0025093304727124  0.0008681519091511   T   T   T
 -0.0000000000000000  0.1644683853773335  0.3182616264543877   T   T   T
  0.0000000000000000  0.3644672839295316  0.6812796026381358   T   T   T
 -0.0000000000000000  0.4983588214364382  0.0008681519091511   T   T   T
  0.0000000000000000  0.6537932410770529  0.3182616264543877   T   T   T
 -0.0000000000000000  0.8168123187086013  0.6812796026381358   T   T   T
  0.5000000000000003  0.8372176368700143  0.1744352737400294   T   T   T
  0.5000000000000003  0.0052889467607748  0.5105778935215508   T   T   T
  0.5000000000000003  0.1670544372838596  0.8341088745677220   T   T   T
  0.5000000000000003  0.3308651831369301  0.1617303662738607   T   T   T
  0.5000000000000003  0.4959057572350102  0.4918115144700225   T   T   T
  0.5000000000000003  0.6662188651447751  0.8324377302895537   T   T   T
 -0.0000000000000000  0.8210903501067606  0.1421807002135220   T   T   T
  0.5000000000000003  0.0937312088082970  0.1633012909529214   T   T   T
  0.5000000000000003  0.9303366607825029  0.3606733215650065   T   T   T
  0.5000000000000003  0.0803487804332447  0.6606975608664906   T   T   T
  0.5000000000000003  0.4028640037972005  0.8341035696350004   T   T   T
  0.5000000000000003  0.2491666372450886 -0.0016667255098223   T   T   T
  0.5000000000000003  0.5695700821446237  0.1633012909529214   T   T   T
  0.5000000000000003  0.4131512401481459  0.3263024802962938   T   T   T
 -0.0000000000000000  0.4957898538196481  0.4915797076392984   T   T   T
  0.5000000000000003  0.5773855289406280  0.6547710578812581   T   T   T
 -0.0000000000000000  0.6823658815645323  0.8647317631290679   T   T   T
  0.5000000000000003  0.9312395658377977  0.8341035696350004   T   T   T
