Sr Co O 
 1.0000000000000000
     4.0786863916671736   -0.1108380622580071    3.8618401531276279
     0.1108380622580069   -4.0786863916671745   -3.8618401531276283
     8.1905273150426225    8.1905273150426510   -7.9881112426643446
 Sr  Co  O  
   6   6  12
Selective dynamics
Direct
  0.0120228036583431 -0.0120228036583430  0.0108544241217066   T   T   T
  0.3521643367523176  0.6478356632476894  0.8295523702156598   T   T   T
  0.6761677407272777  0.3238322592727268  0.6310596901448644   T   T   T
 -0.0098937874647175  0.0098937874647229  0.4670805233706856   T   T   T
  0.3265739915297035  0.6734260084702971  0.3592373911399324   T   T   T
  0.6717959383665087  0.3282040616334963  0.2016621157680334   T   T   T
  0.3698640749903631  0.6301359250096378  0.1195706618533437   T   T   T
  0.6798875357714296  0.3201124642285856  0.8559404181255288   T   T   T
  0.0371755416712084 -0.0371755416712067  0.7776403751332480   T   T   T
  0.3108422617179519  0.6891577382820496  0.5744265032807760   T   T   T
  0.6548444449410881  0.3451555550589130  0.4173198582587495   T   T   T
 -0.0137917894747335  0.0137917894747333  0.2519394565887486   T   T   T
  0.3128477237534724  0.1893587557630340  0.8755661297529587   T   T   T
  0.8106412442369705  0.6871522762465326  0.8755661297529578   T   T   T
  0.8347477270889923  0.1652522729110182  0.7759704661847151   T   T   T
  0.2008976753326967  0.7991023246673057  0.6942609952520712   T   T   T
 -0.0077405224522440  0.4923910347114977  0.5022853584105466   T   T   T
  0.5076089652885086  0.0077405224522545  0.5022853584105460   T   T   T
  0.4936201420579853  0.5063798579420138  0.5131670658812071   T   T   T
  0.3210974772001797  0.1663411319667113  0.3245320081369599   T   T   T
  0.8336588680332884  0.6789025227998219  0.3245320081369588   T   T   T
  0.8205155419583889  0.1794844580416145  0.3362803885107298   T   T   T
  0.6850057823697536  0.8805537060225184  0.1396350967244960   T   T   T
  0.1194462939774833  0.3149942176302481  0.1396350967244966   T   T   T
