Sr Co O 
 1.0000000000000000
     3.8551879496212562   -0.0009333097521352    3.8571340847106907
     0.1004723265875333   -4.2089938000183746   -3.9566158063170556
     7.4728451706609320    7.7490987098441915   -7.4672392425084846
 Sr  Co  O  
   6   6  12
Selective dynamics
Direct
 -0.0165855781361102  0.0000012901537975 -0.0000018870304155   T   T   T
  0.3430185847099835  0.6819974187611695  0.8252794930703687   T   T   T
  0.6569814152900129  0.3180025812388261  0.6747205069296311   T   T   T
  0.0165855781361088 -0.0000012901537985  0.5000018870304161   T   T   T
  0.3389774145083395  0.6820001576260468  0.3252811843073202   T   T   T
  0.6610225854916618  0.3179998423739511  0.1747188156926790   T   T   T
  0.3481647116830781  0.5950756521936071  0.0838011454340811   T   T   T
  0.7530989489981212  0.4049115332259697  0.9161888931373385   T   T   T
 -0.0000000000000024 -0.0000000000000013  0.7500000000000007   T   T   T
  0.2469010510018758  0.5950884667740272  0.5838111068626596   T   T   T
  0.6518352883169213  0.4049243478063899  0.4161988545659178   T   T   T
 -0.0000000000000001 -0.0000000000000001  0.2500000000000002   T   T   T
  0.1019246661884238  0.6445635662862658 -0.0056201262957647   T   T   T
  0.4573153713117276  0.3554291534847606  0.0056346937557812   T   T   T
  0.8076539674947355  0.6681292707844342  0.8099566785156790   T   T   T
  0.7819061183381030  0.1198530810570310  0.8391721241433976   T   T   T
  0.1923460325052612  0.3318707292155629  0.6900433214843193   T   T   T
  0.2180938816618982  0.8801469189429666  0.6608278758566021   T   T   T
  0.5426846286882729  0.6445708465152364  0.4943653062442179   T   T   T
  0.3379574880147241  0.1198624874695927  0.3391745733218409   T   T   T
  0.8604647028354768  0.6681094015889163  0.3099598517858460   T   T   T
  0.8980753338115749  0.3554364337137313  0.5056201262957628   T   T   T
  0.6620425119852760  0.8801375125304037  0.1608254266781579   T   T   T
  0.1395352971645255  0.3318905984110820  0.1900401482141534   T   T   T
